p cnf 916 35468
1 0
2 0
3 0
4 0
5 0
6 0
7 0
8 0
9 0
10 0
11 0
12 0
13 0
14 0
15 0
16 0
17 18 19 3 20 21 0
-17 -18 0
-17 -19 0
-17 -3 0
-17 -20 0
-17 -21 0
-18 -19 0
-18 -3 0
-18 -20 0
-18 -21 0
-19 -3 0
-19 -20 0
-19 -21 0
-3 -20 0
-3 -21 0
-20 -21 0
4 22 23 24 0
-4 -22 0
-4 -23 0
-4 -24 0
-22 -23 0
-22 -24 0
-23 -24 0
25 26 27 28 29 5 0
-25 -26 0
-25 -27 0
-25 -28 0
-25 -29 0
-25 -5 0
-26 -27 0
-26 -28 0
-26 -29 0
-26 -5 0
-27 -28 0
-27 -29 0
-27 -5 0
-28 -29 0
-28 -5 0
-29 -5 0
6 30 31 32 0
-6 -30 0
-6 -31 0
-6 -32 0
-30 -31 0
-30 -32 0
-31 -32 0
1 33 34 35 36 0
-1 -33 0
-1 -34 0
-1 -35 0
-1 -36 0
-33 -34 0
-33 -35 0
-33 -36 0
-34 -35 0
-34 -36 0
-35 -36 0
2 37 38 39 0
-2 -37 0
-2 -38 0
-2 -39 0
-37 -38 0
-37 -39 0
-38 -39 0
40 41 42 7 0
-40 -41 0
-40 -42 0
-40 -7 0
-41 -42 0
-41 -7 0
-42 -7 0
43 8 44 45 0
-43 -8 0
-43 -44 0
-43 -45 0
-8 -44 0
-8 -45 0
-44 -45 0
-17 -4 -25 -6 0
-17 -22 -25 -30 0
-17 -23 -25 -31 0
-17 -24 -25 -32 0
-18 -4 -26 -6 0
-18 -22 -26 -30 0
-18 -23 -26 -31 0
-18 -24 -26 -32 0
-19 -4 -27 -6 0
-19 -22 -27 -30 0
-19 -23 -27 -31 0
-19 -24 -27 -32 0
-3 -4 -28 -6 0
-3 -22 -28 -30 0
-3 -23 -28 -31 0
-3 -24 -28 -32 0
-20 -4 -29 -6 0
-20 -22 -29 -30 0
-20 -23 -29 -31 0
-20 -24 -29 -32 0
-21 -4 -5 -6 0
-21 -22 -5 -30 0
-21 -23 -5 -31 0
-21 -24 -5 -32 0
-17 -4 -1 -2 0
-17 -22 -1 -37 0
-17 -23 -1 -38 0
-17 -24 -1 -39 0
-18 -4 -1 -2 0
-18 -22 -1 -37 0
-18 -23 -1 -38 0
-18 -24 -1 -39 0
-18 -4 -33 -2 0
-18 -22 -33 -37 0
-18 -23 -33 -38 0
-18 -24 -33 -39 0
-19 -4 -33 -2 0
-19 -22 -33 -37 0
-19 -23 -33 -38 0
-19 -24 -33 -39 0
-19 -4 -34 -2 0
-19 -22 -34 -37 0
-19 -23 -34 -38 0
-19 -24 -34 -39 0
-3 -4 -34 -2 0
-3 -22 -34 -37 0
-3 -23 -34 -38 0
-3 -24 -34 -39 0
-3 -4 -35 -2 0
-3 -22 -35 -37 0
-3 -23 -35 -38 0
-3 -24 -35 -39 0
-20 -4 -35 -2 0
-20 -22 -35 -37 0
-20 -23 -35 -38 0
-20 -24 -35 -39 0
-20 -4 -36 -2 0
-20 -22 -36 -37 0
-20 -23 -36 -38 0
-20 -24 -36 -39 0
-21 -4 -36 -2 0
-21 -22 -36 -37 0
-21 -23 -36 -38 0
-21 -24 -36 -39 0
-17 -4 -40 -43 0
-17 -22 -40 -8 0
-17 -23 -40 -44 0
-17 -24 -40 -45 0
-18 -4 -40 -43 0
-18 -22 -40 -8 0
-18 -23 -40 -44 0
-18 -24 -40 -45 0
-18 -4 -41 -43 0
-18 -22 -41 -8 0
-18 -23 -41 -44 0
-18 -24 -41 -45 0
-19 -4 -40 -43 0
-19 -22 -40 -8 0
-19 -23 -40 -44 0
-19 -24 -40 -45 0
-19 -4 -41 -43 0
-19 -22 -41 -8 0
-19 -23 -41 -44 0
-19 -24 -41 -45 0
-19 -4 -42 -43 0
-19 -22 -42 -8 0
-19 -23 -42 -44 0
-19 -24 -42 -45 0
-3 -4 -41 -43 0
-3 -22 -41 -8 0
-3 -23 -41 -44 0
-3 -24 -41 -45 0
-3 -4 -42 -43 0
-3 -22 -42 -8 0
-3 -23 -42 -44 0
-3 -24 -42 -45 0
-3 -4 -7 -43 0
-3 -22 -7 -8 0
-3 -23 -7 -44 0
-3 -24 -7 -45 0
-20 -4 -42 -43 0
-20 -22 -42 -8 0
-20 -23 -42 -44 0
-20 -24 -42 -45 0
-20 -4 -7 -43 0
-20 -22 -7 -8 0
-20 -23 -7 -44 0
-20 -24 -7 -45 0
-21 -4 -7 -43 0
-21 -22 -7 -8 0
-21 -23 -7 -44 0
-21 -24 -7 -45 0
-25 -6 -1 -2 0
-25 -30 -1 -37 0
-25 -31 -1 -38 0
-25 -32 -1 -39 0
-26 -6 -1 -2 0
-26 -30 -1 -37 0
-26 -31 -1 -38 0
-26 -32 -1 -39 0
-26 -6 -33 -2 0
-26 -30 -33 -37 0
-26 -31 -33 -38 0
-26 -32 -33 -39 0
-27 -6 -33 -2 0
-27 -30 -33 -37 0
-27 -31 -33 -38 0
-27 -32 -33 -39 0
-27 -6 -34 -2 0
-27 -30 -34 -37 0
-27 -31 -34 -38 0
-27 -32 -34 -39 0
-28 -6 -34 -2 0
-28 -30 -34 -37 0
-28 -31 -34 -38 0
-28 -32 -34 -39 0
-28 -6 -35 -2 0
-28 -30 -35 -37 0
-28 -31 -35 -38 0
-28 -32 -35 -39 0
-29 -6 -35 -2 0
-29 -30 -35 -37 0
-29 -31 -35 -38 0
-29 -32 -35 -39 0
-29 -6 -36 -2 0
-29 -30 -36 -37 0
-29 -31 -36 -38 0
-29 -32 -36 -39 0
-5 -6 -36 -2 0
-5 -30 -36 -37 0
-5 -31 -36 -38 0
-5 -32 -36 -39 0
-25 -6 -40 -43 0
-25 -30 -40 -8 0
-25 -31 -40 -44 0
-25 -32 -40 -45 0
-26 -6 -40 -43 0
-26 -30 -40 -8 0
-26 -31 -40 -44 0
-26 -32 -40 -45 0
-26 -6 -41 -43 0
-26 -30 -41 -8 0
-26 -31 -41 -44 0
-26 -32 -41 -45 0
-27 -6 -40 -43 0
-27 -30 -40 -8 0
-27 -31 -40 -44 0
-27 -32 -40 -45 0
-27 -6 -41 -43 0
-27 -30 -41 -8 0
-27 -31 -41 -44 0
-27 -32 -41 -45 0
-27 -6 -42 -43 0
-27 -30 -42 -8 0
-27 -31 -42 -44 0
-27 -32 -42 -45 0
-28 -6 -41 -43 0
-28 -30 -41 -8 0
-28 -31 -41 -44 0
-28 -32 -41 -45 0
-28 -6 -42 -43 0
-28 -30 -42 -8 0
-28 -31 -42 -44 0
-28 -32 -42 -45 0
-28 -6 -7 -43 0
-28 -30 -7 -8 0
-28 -31 -7 -44 0
-28 -32 -7 -45 0
-29 -6 -42 -43 0
-29 -30 -42 -8 0
-29 -31 -42 -44 0
-29 -32 -42 -45 0
-29 -6 -7 -43 0
-29 -30 -7 -8 0
-29 -31 -7 -44 0
-29 -32 -7 -45 0
-5 -6 -7 -43 0
-5 -30 -7 -8 0
-5 -31 -7 -44 0
-5 -32 -7 -45 0
-1 -2 -40 -43 0
-1 -37 -40 -8 0
-1 -38 -40 -44 0
-1 -39 -40 -45 0
-1 -2 -41 -43 0
-1 -37 -41 -8 0
-1 -38 -41 -44 0
-1 -39 -41 -45 0
-33 -2 -40 -43 0
-33 -37 -40 -8 0
-33 -38 -40 -44 0
-33 -39 -40 -45 0
-33 -2 -41 -43 0
-33 -37 -41 -8 0
-33 -38 -41 -44 0
-33 -39 -41 -45 0
-33 -2 -42 -43 0
-33 -37 -42 -8 0
-33 -38 -42 -44 0
-33 -39 -42 -45 0
-34 -2 -40 -43 0
-34 -37 -40 -8 0
-34 -38 -40 -44 0
-34 -39 -40 -45 0
-34 -2 -41 -43 0
-34 -37 -41 -8 0
-34 -38 -41 -44 0
-34 -39 -41 -45 0
-34 -2 -42 -43 0
-34 -37 -42 -8 0
-34 -38 -42 -44 0
-34 -39 -42 -45 0
-34 -2 -7 -43 0
-34 -37 -7 -8 0
-34 -38 -7 -44 0
-34 -39 -7 -45 0
-35 -2 -41 -43 0
-35 -37 -41 -8 0
-35 -38 -41 -44 0
-35 -39 -41 -45 0
-35 -2 -42 -43 0
-35 -37 -42 -8 0
-35 -38 -42 -44 0
-35 -39 -42 -45 0
-35 -2 -7 -43 0
-35 -37 -7 -8 0
-35 -38 -7 -44 0
-35 -39 -7 -45 0
-36 -2 -42 -43 0
-36 -37 -42 -8 0
-36 -38 -42 -44 0
-36 -39 -42 -45 0
-36 -2 -7 -43 0
-36 -37 -7 -8 0
-36 -38 -7 -44 0
-36 -39 -7 -45 0
-17 -4 -25 -30 -46 0
-17 -22 -25 -31 -46 0
-17 -23 -25 -32 -46 0
-18 -4 -26 -30 -46 0
-18 -22 -26 -31 -46 0
-18 -23 -26 -32 -46 0
-19 -4 -27 -30 -46 0
-19 -22 -27 -31 -46 0
-19 -23 -27 -32 -46 0
-3 -4 -28 -30 -46 0
-3 -22 -28 -31 -46 0
-3 -23 -28 -32 -46 0
-20 -4 -29 -30 -46 0
-20 -22 -29 -31 -46 0
-20 -23 -29 -32 -46 0
-21 -4 -5 -30 -46 0
-21 -22 -5 -31 -46 0
-21 -23 -5 -32 -46 0
-17 -4 -1 -37 -46 0
-17 -22 -1 -38 -46 0
-17 -23 -1 -39 -46 0
-18 -4 -1 -37 -46 0
-18 -22 -1 -38 -46 0
-18 -23 -1 -39 -46 0
-18 -4 -33 -37 -46 0
-18 -22 -33 -38 -46 0
-18 -23 -33 -39 -46 0
-19 -4 -33 -37 -46 0
-19 -22 -33 -38 -46 0
-19 -23 -33 -39 -46 0
-19 -4 -34 -37 -46 0
-19 -22 -34 -38 -46 0
-19 -23 -34 -39 -46 0
-3 -4 -34 -37 -46 0
-3 -22 -34 -38 -46 0
-3 -23 -34 -39 -46 0
-3 -4 -35 -37 -46 0
-3 -22 -35 -38 -46 0
-3 -23 -35 -39 -46 0
-20 -4 -35 -37 -46 0
-20 -22 -35 -38 -46 0
-20 -23 -35 -39 -46 0
-20 -4 -36 -37 -46 0
-20 -22 -36 -38 -46 0
-20 -23 -36 -39 -46 0
-21 -4 -36 -37 -46 0
-21 -22 -36 -38 -46 0
-21 -23 -36 -39 -46 0
-17 -4 -40 -8 -46 0
-17 -22 -40 -44 -46 0
-17 -23 -40 -45 -46 0
-18 -4 -40 -8 -46 0
-18 -22 -40 -44 -46 0
-18 -23 -40 -45 -46 0
-18 -4 -41 -8 -46 0
-18 -22 -41 -44 -46 0
-18 -23 -41 -45 -46 0
-19 -4 -40 -8 -46 0
-19 -22 -40 -44 -46 0
-19 -23 -40 -45 -46 0
-19 -4 -41 -8 -46 0
-19 -22 -41 -44 -46 0
-19 -23 -41 -45 -46 0
-19 -4 -42 -8 -46 0
-19 -22 -42 -44 -46 0
-19 -23 -42 -45 -46 0
-3 -4 -41 -8 -46 0
-3 -22 -41 -44 -46 0
-3 -23 -41 -45 -46 0
-3 -4 -42 -8 -46 0
-3 -22 -42 -44 -46 0
-3 -23 -42 -45 -46 0
-3 -4 -7 -8 -46 0
-3 -22 -7 -44 -46 0
-3 -23 -7 -45 -46 0
-20 -4 -42 -8 -46 0
-20 -22 -42 -44 -46 0
-20 -23 -42 -45 -46 0
-20 -4 -7 -8 -46 0
-20 -22 -7 -44 -46 0
-20 -23 -7 -45 -46 0
-21 -4 -7 -8 -46 0
-21 -22 -7 -44 -46 0
-21 -23 -7 -45 -46 0
-25 -6 -17 -22 -47 0
-25 -30 -17 -23 -47 0
-25 -31 -17 -24 -47 0
-26 -6 -18 -22 -47 0
-26 -30 -18 -23 -47 0
-26 -31 -18 -24 -47 0
-27 -6 -19 -22 -47 0
-27 -30 -19 -23 -47 0
-27 -31 -19 -24 -47 0
-28 -6 -3 -22 -47 0
-28 -30 -3 -23 -47 0
-28 -31 -3 -24 -47 0
-29 -6 -20 -22 -47 0
-29 -30 -20 -23 -47 0
-29 -31 -20 -24 -47 0
-5 -6 -21 -22 -47 0
-5 -30 -21 -23 -47 0
-5 -31 -21 -24 -47 0
-25 -6 -1 -37 -47 0
-25 -30 -1 -38 -47 0
-25 -31 -1 -39 -47 0
-26 -6 -1 -37 -47 0
-26 -30 -1 -38 -47 0
-26 -31 -1 -39 -47 0
-26 -6 -33 -37 -47 0
-26 -30 -33 -38 -47 0
-26 -31 -33 -39 -47 0
-27 -6 -33 -37 -47 0
-27 -30 -33 -38 -47 0
-27 -31 -33 -39 -47 0
-27 -6 -34 -37 -47 0
-27 -30 -34 -38 -47 0
-27 -31 -34 -39 -47 0
-28 -6 -34 -37 -47 0
-28 -30 -34 -38 -47 0
-28 -31 -34 -39 -47 0
-28 -6 -35 -37 -47 0
-28 -30 -35 -38 -47 0
-28 -31 -35 -39 -47 0
-29 -6 -35 -37 -47 0
-29 -30 -35 -38 -47 0
-29 -31 -35 -39 -47 0
-29 -6 -36 -37 -47 0
-29 -30 -36 -38 -47 0
-29 -31 -36 -39 -47 0
-5 -6 -36 -37 -47 0
-5 -30 -36 -38 -47 0
-5 -31 -36 -39 -47 0
-25 -6 -40 -8 -47 0
-25 -30 -40 -44 -47 0
-25 -31 -40 -45 -47 0
-26 -6 -40 -8 -47 0
-26 -30 -40 -44 -47 0
-26 -31 -40 -45 -47 0
-26 -6 -41 -8 -47 0
-26 -30 -41 -44 -47 0
-26 -31 -41 -45 -47 0
-27 -6 -40 -8 -47 0
-27 -30 -40 -44 -47 0
-27 -31 -40 -45 -47 0
-27 -6 -41 -8 -47 0
-27 -30 -41 -44 -47 0
-27 -31 -41 -45 -47 0
-27 -6 -42 -8 -47 0
-27 -30 -42 -44 -47 0
-27 -31 -42 -45 -47 0
-28 -6 -41 -8 -47 0
-28 -30 -41 -44 -47 0
-28 -31 -41 -45 -47 0
-28 -6 -42 -8 -47 0
-28 -30 -42 -44 -47 0
-28 -31 -42 -45 -47 0
-28 -6 -7 -8 -47 0
-28 -30 -7 -44 -47 0
-28 -31 -7 -45 -47 0
-29 -6 -42 -8 -47 0
-29 -30 -42 -44 -47 0
-29 -31 -42 -45 -47 0
-29 -6 -7 -8 -47 0
-29 -30 -7 -44 -47 0
-29 -31 -7 -45 -47 0
-5 -6 -7 -8 -47 0
-5 -30 -7 -44 -47 0
-5 -31 -7 -45 -47 0
-1 -2 -17 -22 -48 0
-1 -37 -17 -23 -48 0
-1 -38 -17 -24 -48 0
-1 -2 -18 -22 -48 0
-1 -37 -18 -23 -48 0
-1 -38 -18 -24 -48 0
-33 -2 -18 -22 -48 0
-33 -37 -18 -23 -48 0
-33 -38 -18 -24 -48 0
-33 -2 -19 -22 -48 0
-33 -37 -19 -23 -48 0
-33 -38 -19 -24 -48 0
-34 -2 -19 -22 -48 0
-34 -37 -19 -23 -48 0
-34 -38 -19 -24 -48 0
-34 -2 -3 -22 -48 0
-34 -37 -3 -23 -48 0
-34 -38 -3 -24 -48 0
-35 -2 -3 -22 -48 0
-35 -37 -3 -23 -48 0
-35 -38 -3 -24 -48 0
-35 -2 -20 -22 -48 0
-35 -37 -20 -23 -48 0
-35 -38 -20 -24 -48 0
-36 -2 -20 -22 -48 0
-36 -37 -20 -23 -48 0
-36 -38 -20 -24 -48 0
-36 -2 -21 -22 -48 0
-36 -37 -21 -23 -48 0
-36 -38 -21 -24 -48 0
-1 -2 -25 -30 -48 0
-1 -37 -25 -31 -48 0
-1 -38 -25 -32 -48 0
-1 -2 -26 -30 -48 0
-1 -37 -26 -31 -48 0
-1 -38 -26 -32 -48 0
-33 -2 -26 -30 -48 0
-33 -37 -26 -31 -48 0
-33 -38 -26 -32 -48 0
-33 -2 -27 -30 -48 0
-33 -37 -27 -31 -48 0
-33 -38 -27 -32 -48 0
-34 -2 -27 -30 -48 0
-34 -37 -27 -31 -48 0
-34 -38 -27 -32 -48 0
-34 -2 -28 -30 -48 0
-34 -37 -28 -31 -48 0
-34 -38 -28 -32 -48 0
-35 -2 -28 -30 -48 0
-35 -37 -28 -31 -48 0
-35 -38 -28 -32 -48 0
-35 -2 -29 -30 -48 0
-35 -37 -29 -31 -48 0
-35 -38 -29 -32 -48 0
-36 -2 -29 -30 -48 0
-36 -37 -29 -31 -48 0
-36 -38 -29 -32 -48 0
-36 -2 -5 -30 -48 0
-36 -37 -5 -31 -48 0
-36 -38 -5 -32 -48 0
-1 -2 -40 -8 -48 0
-1 -37 -40 -44 -48 0
-1 -38 -40 -45 -48 0
-1 -2 -41 -8 -48 0
-1 -37 -41 -44 -48 0
-1 -38 -41 -45 -48 0
-33 -2 -40 -8 -48 0
-33 -37 -40 -44 -48 0
-33 -38 -40 -45 -48 0
-33 -2 -41 -8 -48 0
-33 -37 -41 -44 -48 0
-33 -38 -41 -45 -48 0
-33 -2 -42 -8 -48 0
-33 -37 -42 -44 -48 0
-33 -38 -42 -45 -48 0
-34 -2 -40 -8 -48 0
-34 -37 -40 -44 -48 0
-34 -38 -40 -45 -48 0
-34 -2 -41 -8 -48 0
-34 -37 -41 -44 -48 0
-34 -38 -41 -45 -48 0
-34 -2 -42 -8 -48 0
-34 -37 -42 -44 -48 0
-34 -38 -42 -45 -48 0
-34 -2 -7 -8 -48 0
-34 -37 -7 -44 -48 0
-34 -38 -7 -45 -48 0
-35 -2 -41 -8 -48 0
-35 -37 -41 -44 -48 0
-35 -38 -41 -45 -48 0
-35 -2 -42 -8 -48 0
-35 -37 -42 -44 -48 0
-35 -38 -42 -45 -48 0
-35 -2 -7 -8 -48 0
-35 -37 -7 -44 -48 0
-35 -38 -7 -45 -48 0
-36 -2 -42 -8 -48 0
-36 -37 -42 -44 -48 0
-36 -38 -42 -45 -48 0
-36 -2 -7 -8 -48 0
-36 -37 -7 -44 -48 0
-36 -38 -7 -45 -48 0
-40 -43 -17 -22 -49 0
-40 -8 -17 -23 -49 0
-40 -44 -17 -24 -49 0
-40 -43 -18 -22 -49 0
-40 -8 -18 -23 -49 0
-40 -44 -18 -24 -49 0
-40 -43 -19 -22 -49 0
-40 -8 -19 -23 -49 0
-40 -44 -19 -24 -49 0
-41 -43 -18 -22 -49 0
-41 -8 -18 -23 -49 0
-41 -44 -18 -24 -49 0
-41 -43 -19 -22 -49 0
-41 -8 -19 -23 -49 0
-41 -44 -19 -24 -49 0
-41 -43 -3 -22 -49 0
-41 -8 -3 -23 -49 0
-41 -44 -3 -24 -49 0
-42 -43 -19 -22 -49 0
-42 -8 -19 -23 -49 0
-42 -44 -19 -24 -49 0
-42 -43 -3 -22 -49 0
-42 -8 -3 -23 -49 0
-42 -44 -3 -24 -49 0
-42 -43 -20 -22 -49 0
-42 -8 -20 -23 -49 0
-42 -44 -20 -24 -49 0
-7 -43 -3 -22 -49 0
-7 -8 -3 -23 -49 0
-7 -44 -3 -24 -49 0
-7 -43 -20 -22 -49 0
-7 -8 -20 -23 -49 0
-7 -44 -20 -24 -49 0
-7 -43 -21 -22 -49 0
-7 -8 -21 -23 -49 0
-7 -44 -21 -24 -49 0
-40 -43 -25 -30 -49 0
-40 -8 -25 -31 -49 0
-40 -44 -25 -32 -49 0
-40 -43 -26 -30 -49 0
-40 -8 -26 -31 -49 0
-40 -44 -26 -32 -49 0
-40 -43 -27 -30 -49 0
-40 -8 -27 -31 -49 0
-40 -44 -27 -32 -49 0
-41 -43 -26 -30 -49 0
-41 -8 -26 -31 -49 0
-41 -44 -26 -32 -49 0
-41 -43 -27 -30 -49 0
-41 -8 -27 -31 -49 0
-41 -44 -27 -32 -49 0
-41 -43 -28 -30 -49 0
-41 -8 -28 -31 -49 0
-41 -44 -28 -32 -49 0
-42 -43 -27 -30 -49 0
-42 -8 -27 -31 -49 0
-42 -44 -27 -32 -49 0
-42 -43 -28 -30 -49 0
-42 -8 -28 -31 -49 0
-42 -44 -28 -32 -49 0
-42 -43 -29 -30 -49 0
-42 -8 -29 -31 -49 0
-42 -44 -29 -32 -49 0
-7 -43 -28 -30 -49 0
-7 -8 -28 -31 -49 0
-7 -44 -28 -32 -49 0
-7 -43 -29 -30 -49 0
-7 -8 -29 -31 -49 0
-7 -44 -29 -32 -49 0
-7 -43 -5 -30 -49 0
-7 -8 -5 -31 -49 0
-7 -44 -5 -32 -49 0
-40 -43 -1 -37 -49 0
-40 -8 -1 -38 -49 0
-40 -44 -1 -39 -49 0
-40 -43 -33 -37 -49 0
-40 -8 -33 -38 -49 0
-40 -44 -33 -39 -49 0
-40 -43 -34 -37 -49 0
-40 -8 -34 -38 -49 0
-40 -44 -34 -39 -49 0
-41 -43 -1 -37 -49 0
-41 -8 -1 -38 -49 0
-41 -44 -1 -39 -49 0
-41 -43 -33 -37 -49 0
-41 -8 -33 -38 -49 0
-41 -44 -33 -39 -49 0
-41 -43 -34 -37 -49 0
-41 -8 -34 -38 -49 0
-41 -44 -34 -39 -49 0
-41 -43 -35 -37 -49 0
-41 -8 -35 -38 -49 0
-41 -44 -35 -39 -49 0
-42 -43 -33 -37 -49 0
-42 -8 -33 -38 -49 0
-42 -44 -33 -39 -49 0
-42 -43 -34 -37 -49 0
-42 -8 -34 -38 -49 0
-42 -44 -34 -39 -49 0
-42 -43 -35 -37 -49 0
-42 -8 -35 -38 -49 0
-42 -44 -35 -39 -49 0
-42 -43 -36 -37 -49 0
-42 -8 -36 -38 -49 0
-42 -44 -36 -39 -49 0
-7 -43 -34 -37 -49 0
-7 -8 -34 -38 -49 0
-7 -44 -34 -39 -49 0
-7 -43 -35 -37 -49 0
-7 -8 -35 -38 -49 0
-7 -44 -35 -39 -49 0
-7 -43 -36 -37 -49 0
-7 -8 -36 -38 -49 0
-7 -44 -36 -39 -49 0
50 51 52 53 54 55 0
-50 -51 0
-50 -52 0
-50 -53 0
-50 -54 0
-50 -55 0
-51 -52 0
-51 -53 0
-51 -54 0
-51 -55 0
-52 -53 0
-52 -54 0
-52 -55 0
-53 -54 0
-53 -55 0
-54 -55 0
56 57 58 59 0
-56 -57 0
-56 -58 0
-56 -59 0
-57 -58 0
-57 -59 0
-58 -59 0
60 61 62 63 64 65 0
-60 -61 0
-60 -62 0
-60 -63 0
-60 -64 0
-60 -65 0
-61 -62 0
-61 -63 0
-61 -64 0
-61 -65 0
-62 -63 0
-62 -64 0
-62 -65 0
-63 -64 0
-63 -65 0
-64 -65 0
66 67 68 69 0
-66 -67 0
-66 -68 0
-66 -69 0
-67 -68 0
-67 -69 0
-68 -69 0
70 71 72 73 74 0
-70 -71 0
-70 -72 0
-70 -73 0
-70 -74 0
-71 -72 0
-71 -73 0
-71 -74 0
-72 -73 0
-72 -74 0
-73 -74 0
75 76 77 78 0
-75 -76 0
-75 -77 0
-75 -78 0
-76 -77 0
-76 -78 0
-77 -78 0
79 80 81 82 0
-79 -80 0
-79 -81 0
-79 -82 0
-80 -81 0
-80 -82 0
-81 -82 0
83 84 85 86 0
-83 -84 0
-83 -85 0
-83 -86 0
-84 -85 0
-84 -86 0
-85 -86 0
-50 -56 -60 -66 0
-50 -57 -60 -67 0
-50 -58 -60 -68 0
-50 -59 -60 -69 0
-51 -56 -61 -66 0
-51 -57 -61 -67 0
-51 -58 -61 -68 0
-51 -59 -61 -69 0
-52 -56 -62 -66 0
-52 -57 -62 -67 0
-52 -58 -62 -68 0
-52 -59 -62 -69 0
-53 -56 -63 -66 0
-53 -57 -63 -67 0
-53 -58 -63 -68 0
-53 -59 -63 -69 0
-54 -56 -64 -66 0
-54 -57 -64 -67 0
-54 -58 -64 -68 0
-54 -59 -64 -69 0
-55 -56 -65 -66 0
-55 -57 -65 -67 0
-55 -58 -65 -68 0
-55 -59 -65 -69 0
-50 -56 -70 -75 0
-50 -57 -70 -76 0
-50 -58 -70 -77 0
-50 -59 -70 -78 0
-51 -56 -70 -75 0
-51 -57 -70 -76 0
-51 -58 -70 -77 0
-51 -59 -70 -78 0
-51 -56 -71 -75 0
-51 -57 -71 -76 0
-51 -58 -71 -77 0
-51 -59 -71 -78 0
-52 -56 -71 -75 0
-52 -57 -71 -76 0
-52 -58 -71 -77 0
-52 -59 -71 -78 0
-52 -56 -72 -75 0
-52 -57 -72 -76 0
-52 -58 -72 -77 0
-52 -59 -72 -78 0
-53 -56 -72 -75 0
-53 -57 -72 -76 0
-53 -58 -72 -77 0
-53 -59 -72 -78 0
-53 -56 -73 -75 0
-53 -57 -73 -76 0
-53 -58 -73 -77 0
-53 -59 -73 -78 0
-54 -56 -73 -75 0
-54 -57 -73 -76 0
-54 -58 -73 -77 0
-54 -59 -73 -78 0
-54 -56 -74 -75 0
-54 -57 -74 -76 0
-54 -58 -74 -77 0
-54 -59 -74 -78 0
-55 -56 -74 -75 0
-55 -57 -74 -76 0
-55 -58 -74 -77 0
-55 -59 -74 -78 0
-50 -56 -79 -83 0
-50 -57 -79 -84 0
-50 -58 -79 -85 0
-50 -59 -79 -86 0
-51 -56 -79 -83 0
-51 -57 -79 -84 0
-51 -58 -79 -85 0
-51 -59 -79 -86 0
-51 -56 -80 -83 0
-51 -57 -80 -84 0
-51 -58 -80 -85 0
-51 -59 -80 -86 0
-52 -56 -79 -83 0
-52 -57 -79 -84 0
-52 -58 -79 -85 0
-52 -59 -79 -86 0
-52 -56 -80 -83 0
-52 -57 -80 -84 0
-52 -58 -80 -85 0
-52 -59 -80 -86 0
-52 -56 -81 -83 0
-52 -57 -81 -84 0
-52 -58 -81 -85 0
-52 -59 -81 -86 0
-53 -56 -80 -83 0
-53 -57 -80 -84 0
-53 -58 -80 -85 0
-53 -59 -80 -86 0
-53 -56 -81 -83 0
-53 -57 -81 -84 0
-53 -58 -81 -85 0
-53 -59 -81 -86 0
-53 -56 -82 -83 0
-53 -57 -82 -84 0
-53 -58 -82 -85 0
-53 -59 -82 -86 0
-54 -56 -81 -83 0
-54 -57 -81 -84 0
-54 -58 -81 -85 0
-54 -59 -81 -86 0
-54 -56 -82 -83 0
-54 -57 -82 -84 0
-54 -58 -82 -85 0
-54 -59 -82 -86 0
-55 -56 -82 -83 0
-55 -57 -82 -84 0
-55 -58 -82 -85 0
-55 -59 -82 -86 0
-60 -66 -70 -75 0
-60 -67 -70 -76 0
-60 -68 -70 -77 0
-60 -69 -70 -78 0
-61 -66 -70 -75 0
-61 -67 -70 -76 0
-61 -68 -70 -77 0
-61 -69 -70 -78 0
-61 -66 -71 -75 0
-61 -67 -71 -76 0
-61 -68 -71 -77 0
-61 -69 -71 -78 0
-62 -66 -71 -75 0
-62 -67 -71 -76 0
-62 -68 -71 -77 0
-62 -69 -71 -78 0
-62 -66 -72 -75 0
-62 -67 -72 -76 0
-62 -68 -72 -77 0
-62 -69 -72 -78 0
-63 -66 -72 -75 0
-63 -67 -72 -76 0
-63 -68 -72 -77 0
-63 -69 -72 -78 0
-63 -66 -73 -75 0
-63 -67 -73 -76 0
-63 -68 -73 -77 0
-63 -69 -73 -78 0
-64 -66 -73 -75 0
-64 -67 -73 -76 0
-64 -68 -73 -77 0
-64 -69 -73 -78 0
-64 -66 -74 -75 0
-64 -67 -74 -76 0
-64 -68 -74 -77 0
-64 -69 -74 -78 0
-65 -66 -74 -75 0
-65 -67 -74 -76 0
-65 -68 -74 -77 0
-65 -69 -74 -78 0
-60 -66 -79 -83 0
-60 -67 -79 -84 0
-60 -68 -79 -85 0
-60 -69 -79 -86 0
-61 -66 -79 -83 0
-61 -67 -79 -84 0
-61 -68 -79 -85 0
-61 -69 -79 -86 0
-61 -66 -80 -83 0
-61 -67 -80 -84 0
-61 -68 -80 -85 0
-61 -69 -80 -86 0
-62 -66 -79 -83 0
-62 -67 -79 -84 0
-62 -68 -79 -85 0
-62 -69 -79 -86 0
-62 -66 -80 -83 0
-62 -67 -80 -84 0
-62 -68 -80 -85 0
-62 -69 -80 -86 0
-62 -66 -81 -83 0
-62 -67 -81 -84 0
-62 -68 -81 -85 0
-62 -69 -81 -86 0
-63 -66 -80 -83 0
-63 -67 -80 -84 0
-63 -68 -80 -85 0
-63 -69 -80 -86 0
-63 -66 -81 -83 0
-63 -67 -81 -84 0
-63 -68 -81 -85 0
-63 -69 -81 -86 0
-63 -66 -82 -83 0
-63 -67 -82 -84 0
-63 -68 -82 -85 0
-63 -69 -82 -86 0
-64 -66 -81 -83 0
-64 -67 -81 -84 0
-64 -68 -81 -85 0
-64 -69 -81 -86 0
-64 -66 -82 -83 0
-64 -67 -82 -84 0
-64 -68 -82 -85 0
-64 -69 -82 -86 0
-65 -66 -82 -83 0
-65 -67 -82 -84 0
-65 -68 -82 -85 0
-65 -69 -82 -86 0
-70 -75 -79 -83 0
-70 -76 -79 -84 0
-70 -77 -79 -85 0
-70 -78 -79 -86 0
-70 -75 -80 -83 0
-70 -76 -80 -84 0
-70 -77 -80 -85 0
-70 -78 -80 -86 0
-71 -75 -79 -83 0
-71 -76 -79 -84 0
-71 -77 -79 -85 0
-71 -78 -79 -86 0
-71 -75 -80 -83 0
-71 -76 -80 -84 0
-71 -77 -80 -85 0
-71 -78 -80 -86 0
-71 -75 -81 -83 0
-71 -76 -81 -84 0
-71 -77 -81 -85 0
-71 -78 -81 -86 0
-72 -75 -79 -83 0
-72 -76 -79 -84 0
-72 -77 -79 -85 0
-72 -78 -79 -86 0
-72 -75 -80 -83 0
-72 -76 -80 -84 0
-72 -77 -80 -85 0
-72 -78 -80 -86 0
-72 -75 -81 -83 0
-72 -76 -81 -84 0
-72 -77 -81 -85 0
-72 -78 -81 -86 0
-72 -75 -82 -83 0
-72 -76 -82 -84 0
-72 -77 -82 -85 0
-72 -78 -82 -86 0
-73 -75 -80 -83 0
-73 -76 -80 -84 0
-73 -77 -80 -85 0
-73 -78 -80 -86 0
-73 -75 -81 -83 0
-73 -76 -81 -84 0
-73 -77 -81 -85 0
-73 -78 -81 -86 0
-73 -75 -82 -83 0
-73 -76 -82 -84 0
-73 -77 -82 -85 0
-73 -78 -82 -86 0
-74 -75 -81 -83 0
-74 -76 -81 -84 0
-74 -77 -81 -85 0
-74 -78 -81 -86 0
-74 -75 -82 -83 0
-74 -76 -82 -84 0
-74 -77 -82 -85 0
-74 -78 -82 -86 0
-50 -56 -60 -67 -87 0
-50 -57 -60 -68 -87 0
-50 -58 -60 -69 -87 0
-51 -56 -61 -67 -87 0
-51 -57 -61 -68 -87 0
-51 -58 -61 -69 -87 0
-52 -56 -62 -67 -87 0
-52 -57 -62 -68 -87 0
-52 -58 -62 -69 -87 0
-53 -56 -63 -67 -87 0
-53 -57 -63 -68 -87 0
-53 -58 -63 -69 -87 0
-54 -56 -64 -67 -87 0
-54 -57 -64 -68 -87 0
-54 -58 -64 -69 -87 0
-55 -56 -65 -67 -87 0
-55 -57 -65 -68 -87 0
-55 -58 -65 -69 -87 0
-50 -56 -70 -76 -87 0
-50 -57 -70 -77 -87 0
-50 -58 -70 -78 -87 0
-51 -56 -70 -76 -87 0
-51 -57 -70 -77 -87 0
-51 -58 -70 -78 -87 0
-51 -56 -71 -76 -87 0
-51 -57 -71 -77 -87 0
-51 -58 -71 -78 -87 0
-52 -56 -71 -76 -87 0
-52 -57 -71 -77 -87 0
-52 -58 -71 -78 -87 0
-52 -56 -72 -76 -87 0
-52 -57 -72 -77 -87 0
-52 -58 -72 -78 -87 0
-53 -56 -72 -76 -87 0
-53 -57 -72 -77 -87 0
-53 -58 -72 -78 -87 0
-53 -56 -73 -76 -87 0
-53 -57 -73 -77 -87 0
-53 -58 -73 -78 -87 0
-54 -56 -73 -76 -87 0
-54 -57 -73 -77 -87 0
-54 -58 -73 -78 -87 0
-54 -56 -74 -76 -87 0
-54 -57 -74 -77 -87 0
-54 -58 -74 -78 -87 0
-55 -56 -74 -76 -87 0
-55 -57 -74 -77 -87 0
-55 -58 -74 -78 -87 0
-50 -56 -79 -84 -87 0
-50 -57 -79 -85 -87 0
-50 -58 -79 -86 -87 0
-51 -56 -79 -84 -87 0
-51 -57 -79 -85 -87 0
-51 -58 -79 -86 -87 0
-51 -56 -80 -84 -87 0
-51 -57 -80 -85 -87 0
-51 -58 -80 -86 -87 0
-52 -56 -79 -84 -87 0
-52 -57 -79 -85 -87 0
-52 -58 -79 -86 -87 0
-52 -56 -80 -84 -87 0
-52 -57 -80 -85 -87 0
-52 -58 -80 -86 -87 0
-52 -56 -81 -84 -87 0
-52 -57 -81 -85 -87 0
-52 -58 -81 -86 -87 0
-53 -56 -80 -84 -87 0
-53 -57 -80 -85 -87 0
-53 -58 -80 -86 -87 0
-53 -56 -81 -84 -87 0
-53 -57 -81 -85 -87 0
-53 -58 -81 -86 -87 0
-53 -56 -82 -84 -87 0
-53 -57 -82 -85 -87 0
-53 -58 -82 -86 -87 0
-54 -56 -81 -84 -87 0
-54 -57 -81 -85 -87 0
-54 -58 -81 -86 -87 0
-54 -56 -82 -84 -87 0
-54 -57 -82 -85 -87 0
-54 -58 -82 -86 -87 0
-55 -56 -82 -84 -87 0
-55 -57 -82 -85 -87 0
-55 -58 -82 -86 -87 0
-60 -66 -50 -57 -88 0
-60 -67 -50 -58 -88 0
-60 -68 -50 -59 -88 0
-61 -66 -51 -57 -88 0
-61 -67 -51 -58 -88 0
-61 -68 -51 -59 -88 0
-62 -66 -52 -57 -88 0
-62 -67 -52 -58 -88 0
-62 -68 -52 -59 -88 0
-63 -66 -53 -57 -88 0
-63 -67 -53 -58 -88 0
-63 -68 -53 -59 -88 0
-64 -66 -54 -57 -88 0
-64 -67 -54 -58 -88 0
-64 -68 -54 -59 -88 0
-65 -66 -55 -57 -88 0
-65 -67 -55 -58 -88 0
-65 -68 -55 -59 -88 0
-60 -66 -70 -76 -88 0
-60 -67 -70 -77 -88 0
-60 -68 -70 -78 -88 0
-61 -66 -70 -76 -88 0
-61 -67 -70 -77 -88 0
-61 -68 -70 -78 -88 0
-61 -66 -71 -76 -88 0
-61 -67 -71 -77 -88 0
-61 -68 -71 -78 -88 0
-62 -66 -71 -76 -88 0
-62 -67 -71 -77 -88 0
-62 -68 -71 -78 -88 0
-62 -66 -72 -76 -88 0
-62 -67 -72 -77 -88 0
-62 -68 -72 -78 -88 0
-63 -66 -72 -76 -88 0
-63 -67 -72 -77 -88 0
-63 -68 -72 -78 -88 0
-63 -66 -73 -76 -88 0
-63 -67 -73 -77 -88 0
-63 -68 -73 -78 -88 0
-64 -66 -73 -76 -88 0
-64 -67 -73 -77 -88 0
-64 -68 -73 -78 -88 0
-64 -66 -74 -76 -88 0
-64 -67 -74 -77 -88 0
-64 -68 -74 -78 -88 0
-65 -66 -74 -76 -88 0
-65 -67 -74 -77 -88 0
-65 -68 -74 -78 -88 0
-60 -66 -79 -84 -88 0
-60 -67 -79 -85 -88 0
-60 -68 -79 -86 -88 0
-61 -66 -79 -84 -88 0
-61 -67 -79 -85 -88 0
-61 -68 -79 -86 -88 0
-61 -66 -80 -84 -88 0
-61 -67 -80 -85 -88 0
-61 -68 -80 -86 -88 0
-62 -66 -79 -84 -88 0
-62 -67 -79 -85 -88 0
-62 -68 -79 -86 -88 0
-62 -66 -80 -84 -88 0
-62 -67 -80 -85 -88 0
-62 -68 -80 -86 -88 0
-62 -66 -81 -84 -88 0
-62 -67 -81 -85 -88 0
-62 -68 -81 -86 -88 0
-63 -66 -80 -84 -88 0
-63 -67 -80 -85 -88 0
-63 -68 -80 -86 -88 0
-63 -66 -81 -84 -88 0
-63 -67 -81 -85 -88 0
-63 -68 -81 -86 -88 0
-63 -66 -82 -84 -88 0
-63 -67 -82 -85 -88 0
-63 -68 -82 -86 -88 0
-64 -66 -81 -84 -88 0
-64 -67 -81 -85 -88 0
-64 -68 -81 -86 -88 0
-64 -66 -82 -84 -88 0
-64 -67 -82 -85 -88 0
-64 -68 -82 -86 -88 0
-65 -66 -82 -84 -88 0
-65 -67 -82 -85 -88 0
-65 -68 -82 -86 -88 0
-70 -75 -50 -57 -89 0
-70 -76 -50 -58 -89 0
-70 -77 -50 -59 -89 0
-70 -75 -51 -57 -89 0
-70 -76 -51 -58 -89 0
-70 -77 -51 -59 -89 0
-71 -75 -51 -57 -89 0
-71 -76 -51 -58 -89 0
-71 -77 -51 -59 -89 0
-71 -75 -52 -57 -89 0
-71 -76 -52 -58 -89 0
-71 -77 -52 -59 -89 0
-72 -75 -52 -57 -89 0
-72 -76 -52 -58 -89 0
-72 -77 -52 -59 -89 0
-72 -75 -53 -57 -89 0
-72 -76 -53 -58 -89 0
-72 -77 -53 -59 -89 0
-73 -75 -53 -57 -89 0
-73 -76 -53 -58 -89 0
-73 -77 -53 -59 -89 0
-73 -75 -54 -57 -89 0
-73 -76 -54 -58 -89 0
-73 -77 -54 -59 -89 0
-74 -75 -54 -57 -89 0
-74 -76 -54 -58 -89 0
-74 -77 -54 -59 -89 0
-74 -75 -55 -57 -89 0
-74 -76 -55 -58 -89 0
-74 -77 -55 -59 -89 0
-70 -75 -60 -67 -89 0
-70 -76 -60 -68 -89 0
-70 -77 -60 -69 -89 0
-70 -75 -61 -67 -89 0
-70 -76 -61 -68 -89 0
-70 -77 -61 -69 -89 0
-71 -75 -61 -67 -89 0
-71 -76 -61 -68 -89 0
-71 -77 -61 -69 -89 0
-71 -75 -62 -67 -89 0
-71 -76 -62 -68 -89 0
-71 -77 -62 -69 -89 0
-72 -75 -62 -67 -89 0
-72 -76 -62 -68 -89 0
-72 -77 -62 -69 -89 0
-72 -75 -63 -67 -89 0
-72 -76 -63 -68 -89 0
-72 -77 -63 -69 -89 0
-73 -75 -63 -67 -89 0
-73 -76 -63 -68 -89 0
-73 -77 -63 -69 -89 0
-73 -75 -64 -67 -89 0
-73 -76 -64 -68 -89 0
-73 -77 -64 -69 -89 0
-74 -75 -64 -67 -89 0
-74 -76 -64 -68 -89 0
-74 -77 -64 -69 -89 0
-74 -75 -65 -67 -89 0
-74 -76 -65 -68 -89 0
-74 -77 -65 -69 -89 0
-70 -75 -79 -84 -89 0
-70 -76 -79 -85 -89 0
-70 -77 -79 -86 -89 0
-70 -75 -80 -84 -89 0
-70 -76 -80 -85 -89 0
-70 -77 -80 -86 -89 0
-71 -75 -79 -84 -89 0
-71 -76 -79 -85 -89 0
-71 -77 -79 -86 -89 0
-71 -75 -80 -84 -89 0
-71 -76 -80 -85 -89 0
-71 -77 -80 -86 -89 0
-71 -75 -81 -84 -89 0
-71 -76 -81 -85 -89 0
-71 -77 -81 -86 -89 0
-72 -75 -79 -84 -89 0
-72 -76 -79 -85 -89 0
-72 -77 -79 -86 -89 0
-72 -75 -80 -84 -89 0
-72 -76 -80 -85 -89 0
-72 -77 -80 -86 -89 0
-72 -75 -81 -84 -89 0
-72 -76 -81 -85 -89 0
-72 -77 -81 -86 -89 0
-72 -75 -82 -84 -89 0
-72 -76 -82 -85 -89 0
-72 -77 -82 -86 -89 0
-73 -75 -80 -84 -89 0
-73 -76 -80 -85 -89 0
-73 -77 -80 -86 -89 0
-73 -75 -81 -84 -89 0
-73 -76 -81 -85 -89 0
-73 -77 -81 -86 -89 0
-73 -75 -82 -84 -89 0
-73 -76 -82 -85 -89 0
-73 -77 -82 -86 -89 0
-74 -75 -81 -84 -89 0
-74 -76 -81 -85 -89 0
-74 -77 -81 -86 -89 0
-74 -75 -82 -84 -89 0
-74 -76 -82 -85 -89 0
-74 -77 -82 -86 -89 0
-79 -83 -50 -57 -90 0
-79 -84 -50 -58 -90 0
-79 -85 -50 -59 -90 0
-79 -83 -51 -57 -90 0
-79 -84 -51 -58 -90 0
-79 -85 -51 -59 -90 0
-79 -83 -52 -57 -90 0
-79 -84 -52 -58 -90 0
-79 -85 -52 -59 -90 0
-80 -83 -51 -57 -90 0
-80 -84 -51 -58 -90 0
-80 -85 -51 -59 -90 0
-80 -83 -52 -57 -90 0
-80 -84 -52 -58 -90 0
-80 -85 -52 -59 -90 0
-80 -83 -53 -57 -90 0
-80 -84 -53 -58 -90 0
-80 -85 -53 -59 -90 0
-81 -83 -52 -57 -90 0
-81 -84 -52 -58 -90 0
-81 -85 -52 -59 -90 0
-81 -83 -53 -57 -90 0
-81 -84 -53 -58 -90 0
-81 -85 -53 -59 -90 0
-81 -83 -54 -57 -90 0
-81 -84 -54 -58 -90 0
-81 -85 -54 -59 -90 0
-82 -83 -53 -57 -90 0
-82 -84 -53 -58 -90 0
-82 -85 -53 -59 -90 0
-82 -83 -54 -57 -90 0
-82 -84 -54 -58 -90 0
-82 -85 -54 -59 -90 0
-82 -83 -55 -57 -90 0
-82 -84 -55 -58 -90 0
-82 -85 -55 -59 -90 0
-79 -83 -60 -67 -90 0
-79 -84 -60 -68 -90 0
-79 -85 -60 -69 -90 0
-79 -83 -61 -67 -90 0
-79 -84 -61 -68 -90 0
-79 -85 -61 -69 -90 0
-79 -83 -62 -67 -90 0
-79 -84 -62 -68 -90 0
-79 -85 -62 -69 -90 0
-80 -83 -61 -67 -90 0
-80 -84 -61 -68 -90 0
-80 -85 -61 -69 -90 0
-80 -83 -62 -67 -90 0
-80 -84 -62 -68 -90 0
-80 -85 -62 -69 -90 0
-80 -83 -63 -67 -90 0
-80 -84 -63 -68 -90 0
-80 -85 -63 -69 -90 0
-81 -83 -62 -67 -90 0
-81 -84 -62 -68 -90 0
-81 -85 -62 -69 -90 0
-81 -83 -63 -67 -90 0
-81 -84 -63 -68 -90 0
-81 -85 -63 -69 -90 0
-81 -83 -64 -67 -90 0
-81 -84 -64 -68 -90 0
-81 -85 -64 -69 -90 0
-82 -83 -63 -67 -90 0
-82 -84 -63 -68 -90 0
-82 -85 -63 -69 -90 0
-82 -83 -64 -67 -90 0
-82 -84 -64 -68 -90 0
-82 -85 -64 -69 -90 0
-82 -83 -65 -67 -90 0
-82 -84 -65 -68 -90 0
-82 -85 -65 -69 -90 0
-79 -83 -70 -76 -90 0
-79 -84 -70 -77 -90 0
-79 -85 -70 -78 -90 0
-79 -83 -71 -76 -90 0
-79 -84 -71 -77 -90 0
-79 -85 -71 -78 -90 0
-79 -83 -72 -76 -90 0
-79 -84 -72 -77 -90 0
-79 -85 -72 -78 -90 0
-80 -83 -70 -76 -90 0
-80 -84 -70 -77 -90 0
-80 -85 -70 -78 -90 0
-80 -83 -71 -76 -90 0
-80 -84 -71 -77 -90 0
-80 -85 -71 -78 -90 0
-80 -83 -72 -76 -90 0
-80 -84 -72 -77 -90 0
-80 -85 -72 -78 -90 0
-80 -83 -73 -76 -90 0
-80 -84 -73 -77 -90 0
-80 -85 -73 -78 -90 0
-81 -83 -71 -76 -90 0
-81 -84 -71 -77 -90 0
-81 -85 -71 -78 -90 0
-81 -83 -72 -76 -90 0
-81 -84 -72 -77 -90 0
-81 -85 -72 -78 -90 0
-81 -83 -73 -76 -90 0
-81 -84 -73 -77 -90 0
-81 -85 -73 -78 -90 0
-81 -83 -74 -76 -90 0
-81 -84 -74 -77 -90 0
-81 -85 -74 -78 -90 0
-82 -83 -72 -76 -90 0
-82 -84 -72 -77 -90 0
-82 -85 -72 -78 -90 0
-82 -83 -73 -76 -90 0
-82 -84 -73 -77 -90 0
-82 -85 -73 -78 -90 0
-82 -83 -74 -76 -90 0
-82 -84 -74 -77 -90 0
-82 -85 -74 -78 -90 0
91 92 93 94 95 96 0
-91 -92 0
-91 -93 0
-91 -94 0
-91 -95 0
-91 -96 0
-92 -93 0
-92 -94 0
-92 -95 0
-92 -96 0
-93 -94 0
-93 -95 0
-93 -96 0
-94 -95 0
-94 -96 0
-95 -96 0
97 98 99 100 0
-97 -98 0
-97 -99 0
-97 -100 0
-98 -99 0
-98 -100 0
-99 -100 0
101 102 103 104 105 106 0
-101 -102 0
-101 -103 0
-101 -104 0
-101 -105 0
-101 -106 0
-102 -103 0
-102 -104 0
-102 -105 0
-102 -106 0
-103 -104 0
-103 -105 0
-103 -106 0
-104 -105 0
-104 -106 0
-105 -106 0
107 108 109 110 0
-107 -108 0
-107 -109 0
-107 -110 0
-108 -109 0
-108 -110 0
-109 -110 0
111 112 113 114 115 0
-111 -112 0
-111 -113 0
-111 -114 0
-111 -115 0
-112 -113 0
-112 -114 0
-112 -115 0
-113 -114 0
-113 -115 0
-114 -115 0
116 117 118 119 0
-116 -117 0
-116 -118 0
-116 -119 0
-117 -118 0
-117 -119 0
-118 -119 0
120 121 122 123 0
-120 -121 0
-120 -122 0
-120 -123 0
-121 -122 0
-121 -123 0
-122 -123 0
124 125 126 127 0
-124 -125 0
-124 -126 0
-124 -127 0
-125 -126 0
-125 -127 0
-126 -127 0
-91 -97 -101 -107 0
-91 -98 -101 -108 0
-91 -99 -101 -109 0
-91 -100 -101 -110 0
-92 -97 -102 -107 0
-92 -98 -102 -108 0
-92 -99 -102 -109 0
-92 -100 -102 -110 0
-93 -97 -103 -107 0
-93 -98 -103 -108 0
-93 -99 -103 -109 0
-93 -100 -103 -110 0
-94 -97 -104 -107 0
-94 -98 -104 -108 0
-94 -99 -104 -109 0
-94 -100 -104 -110 0
-95 -97 -105 -107 0
-95 -98 -105 -108 0
-95 -99 -105 -109 0
-95 -100 -105 -110 0
-96 -97 -106 -107 0
-96 -98 -106 -108 0
-96 -99 -106 -109 0
-96 -100 -106 -110 0
-91 -97 -111 -116 0
-91 -98 -111 -117 0
-91 -99 -111 -118 0
-91 -100 -111 -119 0
-92 -97 -111 -116 0
-92 -98 -111 -117 0
-92 -99 -111 -118 0
-92 -100 -111 -119 0
-92 -97 -112 -116 0
-92 -98 -112 -117 0
-92 -99 -112 -118 0
-92 -100 -112 -119 0
-93 -97 -112 -116 0
-93 -98 -112 -117 0
-93 -99 -112 -118 0
-93 -100 -112 -119 0
-93 -97 -113 -116 0
-93 -98 -113 -117 0
-93 -99 -113 -118 0
-93 -100 -113 -119 0
-94 -97 -113 -116 0
-94 -98 -113 -117 0
-94 -99 -113 -118 0
-94 -100 -113 -119 0
-94 -97 -114 -116 0
-94 -98 -114 -117 0
-94 -99 -114 -118 0
-94 -100 -114 -119 0
-95 -97 -114 -116 0
-95 -98 -114 -117 0
-95 -99 -114 -118 0
-95 -100 -114 -119 0
-95 -97 -115 -116 0
-95 -98 -115 -117 0
-95 -99 -115 -118 0
-95 -100 -115 -119 0
-96 -97 -115 -116 0
-96 -98 -115 -117 0
-96 -99 -115 -118 0
-96 -100 -115 -119 0
-91 -97 -120 -124 0
-91 -98 -120 -125 0
-91 -99 -120 -126 0
-91 -100 -120 -127 0
-92 -97 -120 -124 0
-92 -98 -120 -125 0
-92 -99 -120 -126 0
-92 -100 -120 -127 0
-92 -97 -121 -124 0
-92 -98 -121 -125 0
-92 -99 -121 -126 0
-92 -100 -121 -127 0
-93 -97 -120 -124 0
-93 -98 -120 -125 0
-93 -99 -120 -126 0
-93 -100 -120 -127 0
-93 -97 -121 -124 0
-93 -98 -121 -125 0
-93 -99 -121 -126 0
-93 -100 -121 -127 0
-93 -97 -122 -124 0
-93 -98 -122 -125 0
-93 -99 -122 -126 0
-93 -100 -122 -127 0
-94 -97 -121 -124 0
-94 -98 -121 -125 0
-94 -99 -121 -126 0
-94 -100 -121 -127 0
-94 -97 -122 -124 0
-94 -98 -122 -125 0
-94 -99 -122 -126 0
-94 -100 -122 -127 0
-94 -97 -123 -124 0
-94 -98 -123 -125 0
-94 -99 -123 -126 0
-94 -100 -123 -127 0
-95 -97 -122 -124 0
-95 -98 -122 -125 0
-95 -99 -122 -126 0
-95 -100 -122 -127 0
-95 -97 -123 -124 0
-95 -98 -123 -125 0
-95 -99 -123 -126 0
-95 -100 -123 -127 0
-96 -97 -123 -124 0
-96 -98 -123 -125 0
-96 -99 -123 -126 0
-96 -100 -123 -127 0
-101 -107 -111 -116 0
-101 -108 -111 -117 0
-101 -109 -111 -118 0
-101 -110 -111 -119 0
-102 -107 -111 -116 0
-102 -108 -111 -117 0
-102 -109 -111 -118 0
-102 -110 -111 -119 0
-102 -107 -112 -116 0
-102 -108 -112 -117 0
-102 -109 -112 -118 0
-102 -110 -112 -119 0
-103 -107 -112 -116 0
-103 -108 -112 -117 0
-103 -109 -112 -118 0
-103 -110 -112 -119 0
-103 -107 -113 -116 0
-103 -108 -113 -117 0
-103 -109 -113 -118 0
-103 -110 -113 -119 0
-104 -107 -113 -116 0
-104 -108 -113 -117 0
-104 -109 -113 -118 0
-104 -110 -113 -119 0
-104 -107 -114 -116 0
-104 -108 -114 -117 0
-104 -109 -114 -118 0
-104 -110 -114 -119 0
-105 -107 -114 -116 0
-105 -108 -114 -117 0
-105 -109 -114 -118 0
-105 -110 -114 -119 0
-105 -107 -115 -116 0
-105 -108 -115 -117 0
-105 -109 -115 -118 0
-105 -110 -115 -119 0
-106 -107 -115 -116 0
-106 -108 -115 -117 0
-106 -109 -115 -118 0
-106 -110 -115 -119 0
-101 -107 -120 -124 0
-101 -108 -120 -125 0
-101 -109 -120 -126 0
-101 -110 -120 -127 0
-102 -107 -120 -124 0
-102 -108 -120 -125 0
-102 -109 -120 -126 0
-102 -110 -120 -127 0
-102 -107 -121 -124 0
-102 -108 -121 -125 0
-102 -109 -121 -126 0
-102 -110 -121 -127 0
-103 -107 -120 -124 0
-103 -108 -120 -125 0
-103 -109 -120 -126 0
-103 -110 -120 -127 0
-103 -107 -121 -124 0
-103 -108 -121 -125 0
-103 -109 -121 -126 0
-103 -110 -121 -127 0
-103 -107 -122 -124 0
-103 -108 -122 -125 0
-103 -109 -122 -126 0
-103 -110 -122 -127 0
-104 -107 -121 -124 0
-104 -108 -121 -125 0
-104 -109 -121 -126 0
-104 -110 -121 -127 0
-104 -107 -122 -124 0
-104 -108 -122 -125 0
-104 -109 -122 -126 0
-104 -110 -122 -127 0
-104 -107 -123 -124 0
-104 -108 -123 -125 0
-104 -109 -123 -126 0
-104 -110 -123 -127 0
-105 -107 -122 -124 0
-105 -108 -122 -125 0
-105 -109 -122 -126 0
-105 -110 -122 -127 0
-105 -107 -123 -124 0
-105 -108 -123 -125 0
-105 -109 -123 -126 0
-105 -110 -123 -127 0
-106 -107 -123 -124 0
-106 -108 -123 -125 0
-106 -109 -123 -126 0
-106 -110 -123 -127 0
-111 -116 -120 -124 0
-111 -117 -120 -125 0
-111 -118 -120 -126 0
-111 -119 -120 -127 0
-111 -116 -121 -124 0
-111 -117 -121 -125 0
-111 -118 -121 -126 0
-111 -119 -121 -127 0
-112 -116 -120 -124 0
-112 -117 -120 -125 0
-112 -118 -120 -126 0
-112 -119 -120 -127 0
-112 -116 -121 -124 0
-112 -117 -121 -125 0
-112 -118 -121 -126 0
-112 -119 -121 -127 0
-112 -116 -122 -124 0
-112 -117 -122 -125 0
-112 -118 -122 -126 0
-112 -119 -122 -127 0
-113 -116 -120 -124 0
-113 -117 -120 -125 0
-113 -118 -120 -126 0
-113 -119 -120 -127 0
-113 -116 -121 -124 0
-113 -117 -121 -125 0
-113 -118 -121 -126 0
-113 -119 -121 -127 0
-113 -116 -122 -124 0
-113 -117 -122 -125 0
-113 -118 -122 -126 0
-113 -119 -122 -127 0
-113 -116 -123 -124 0
-113 -117 -123 -125 0
-113 -118 -123 -126 0
-113 -119 -123 -127 0
-114 -116 -121 -124 0
-114 -117 -121 -125 0
-114 -118 -121 -126 0
-114 -119 -121 -127 0
-114 -116 -122 -124 0
-114 -117 -122 -125 0
-114 -118 -122 -126 0
-114 -119 -122 -127 0
-114 -116 -123 -124 0
-114 -117 -123 -125 0
-114 -118 -123 -126 0
-114 -119 -123 -127 0
-115 -116 -122 -124 0
-115 -117 -122 -125 0
-115 -118 -122 -126 0
-115 -119 -122 -127 0
-115 -116 -123 -124 0
-115 -117 -123 -125 0
-115 -118 -123 -126 0
-115 -119 -123 -127 0
-91 -97 -101 -108 -128 0
-91 -98 -101 -109 -128 0
-91 -99 -101 -110 -128 0
-92 -97 -102 -108 -128 0
-92 -98 -102 -109 -128 0
-92 -99 -102 -110 -128 0
-93 -97 -103 -108 -128 0
-93 -98 -103 -109 -128 0
-93 -99 -103 -110 -128 0
-94 -97 -104 -108 -128 0
-94 -98 -104 -109 -128 0
-94 -99 -104 -110 -128 0
-95 -97 -105 -108 -128 0
-95 -98 -105 -109 -128 0
-95 -99 -105 -110 -128 0
-96 -97 -106 -108 -128 0
-96 -98 -106 -109 -128 0
-96 -99 -106 -110 -128 0
-91 -97 -111 -117 -128 0
-91 -98 -111 -118 -128 0
-91 -99 -111 -119 -128 0
-92 -97 -111 -117 -128 0
-92 -98 -111 -118 -128 0
-92 -99 -111 -119 -128 0
-92 -97 -112 -117 -128 0
-92 -98 -112 -118 -128 0
-92 -99 -112 -119 -128 0
-93 -97 -112 -117 -128 0
-93 -98 -112 -118 -128 0
-93 -99 -112 -119 -128 0
-93 -97 -113 -117 -128 0
-93 -98 -113 -118 -128 0
-93 -99 -113 -119 -128 0
-94 -97 -113 -117 -128 0
-94 -98 -113 -118 -128 0
-94 -99 -113 -119 -128 0
-94 -97 -114 -117 -128 0
-94 -98 -114 -118 -128 0
-94 -99 -114 -119 -128 0
-95 -97 -114 -117 -128 0
-95 -98 -114 -118 -128 0
-95 -99 -114 -119 -128 0
-95 -97 -115 -117 -128 0
-95 -98 -115 -118 -128 0
-95 -99 -115 -119 -128 0
-96 -97 -115 -117 -128 0
-96 -98 -115 -118 -128 0
-96 -99 -115 -119 -128 0
-91 -97 -120 -125 -128 0
-91 -98 -120 -126 -128 0
-91 -99 -120 -127 -128 0
-92 -97 -120 -125 -128 0
-92 -98 -120 -126 -128 0
-92 -99 -120 -127 -128 0
-92 -97 -121 -125 -128 0
-92 -98 -121 -126 -128 0
-92 -99 -121 -127 -128 0
-93 -97 -120 -125 -128 0
-93 -98 -120 -126 -128 0
-93 -99 -120 -127 -128 0
-93 -97 -121 -125 -128 0
-93 -98 -121 -126 -128 0
-93 -99 -121 -127 -128 0
-93 -97 -122 -125 -128 0
-93 -98 -122 -126 -128 0
-93 -99 -122 -127 -128 0
-94 -97 -121 -125 -128 0
-94 -98 -121 -126 -128 0
-94 -99 -121 -127 -128 0
-94 -97 -122 -125 -128 0
-94 -98 -122 -126 -128 0
-94 -99 -122 -127 -128 0
-94 -97 -123 -125 -128 0
-94 -98 -123 -126 -128 0
-94 -99 -123 -127 -128 0
-95 -97 -122 -125 -128 0
-95 -98 -122 -126 -128 0
-95 -99 -122 -127 -128 0
-95 -97 -123 -125 -128 0
-95 -98 -123 -126 -128 0
-95 -99 -123 -127 -128 0
-96 -97 -123 -125 -128 0
-96 -98 -123 -126 -128 0
-96 -99 -123 -127 -128 0
-101 -107 -91 -98 -129 0
-101 -108 -91 -99 -129 0
-101 -109 -91 -100 -129 0
-102 -107 -92 -98 -129 0
-102 -108 -92 -99 -129 0
-102 -109 -92 -100 -129 0
-103 -107 -93 -98 -129 0
-103 -108 -93 -99 -129 0
-103 -109 -93 -100 -129 0
-104 -107 -94 -98 -129 0
-104 -108 -94 -99 -129 0
-104 -109 -94 -100 -129 0
-105 -107 -95 -98 -129 0
-105 -108 -95 -99 -129 0
-105 -109 -95 -100 -129 0
-106 -107 -96 -98 -129 0
-106 -108 -96 -99 -129 0
-106 -109 -96 -100 -129 0
-101 -107 -111 -117 -129 0
-101 -108 -111 -118 -129 0
-101 -109 -111 -119 -129 0
-102 -107 -111 -117 -129 0
-102 -108 -111 -118 -129 0
-102 -109 -111 -119 -129 0
-102 -107 -112 -117 -129 0
-102 -108 -112 -118 -129 0
-102 -109 -112 -119 -129 0
-103 -107 -112 -117 -129 0
-103 -108 -112 -118 -129 0
-103 -109 -112 -119 -129 0
-103 -107 -113 -117 -129 0
-103 -108 -113 -118 -129 0
-103 -109 -113 -119 -129 0
-104 -107 -113 -117 -129 0
-104 -108 -113 -118 -129 0
-104 -109 -113 -119 -129 0
-104 -107 -114 -117 -129 0
-104 -108 -114 -118 -129 0
-104 -109 -114 -119 -129 0
-105 -107 -114 -117 -129 0
-105 -108 -114 -118 -129 0
-105 -109 -114 -119 -129 0
-105 -107 -115 -117 -129 0
-105 -108 -115 -118 -129 0
-105 -109 -115 -119 -129 0
-106 -107 -115 -117 -129 0
-106 -108 -115 -118 -129 0
-106 -109 -115 -119 -129 0
-101 -107 -120 -125 -129 0
-101 -108 -120 -126 -129 0
-101 -109 -120 -127 -129 0
-102 -107 -120 -125 -129 0
-102 -108 -120 -126 -129 0
-102 -109 -120 -127 -129 0
-102 -107 -121 -125 -129 0
-102 -108 -121 -126 -129 0
-102 -109 -121 -127 -129 0
-103 -107 -120 -125 -129 0
-103 -108 -120 -126 -129 0
-103 -109 -120 -127 -129 0
-103 -107 -121 -125 -129 0
-103 -108 -121 -126 -129 0
-103 -109 -121 -127 -129 0
-103 -107 -122 -125 -129 0
-103 -108 -122 -126 -129 0
-103 -109 -122 -127 -129 0
-104 -107 -121 -125 -129 0
-104 -108 -121 -126 -129 0
-104 -109 -121 -127 -129 0
-104 -107 -122 -125 -129 0
-104 -108 -122 -126 -129 0
-104 -109 -122 -127 -129 0
-104 -107 -123 -125 -129 0
-104 -108 -123 -126 -129 0
-104 -109 -123 -127 -129 0
-105 -107 -122 -125 -129 0
-105 -108 -122 -126 -129 0
-105 -109 -122 -127 -129 0
-105 -107 -123 -125 -129 0
-105 -108 -123 -126 -129 0
-105 -109 -123 -127 -129 0
-106 -107 -123 -125 -129 0
-106 -108 -123 -126 -129 0
-106 -109 -123 -127 -129 0
-111 -116 -91 -98 -130 0
-111 -117 -91 -99 -130 0
-111 -118 -91 -100 -130 0
-111 -116 -92 -98 -130 0
-111 -117 -92 -99 -130 0
-111 -118 -92 -100 -130 0
-112 -116 -92 -98 -130 0
-112 -117 -92 -99 -130 0
-112 -118 -92 -100 -130 0
-112 -116 -93 -98 -130 0
-112 -117 -93 -99 -130 0
-112 -118 -93 -100 -130 0
-113 -116 -93 -98 -130 0
-113 -117 -93 -99 -130 0
-113 -118 -93 -100 -130 0
-113 -116 -94 -98 -130 0
-113 -117 -94 -99 -130 0
-113 -118 -94 -100 -130 0
-114 -116 -94 -98 -130 0
-114 -117 -94 -99 -130 0
-114 -118 -94 -100 -130 0
-114 -116 -95 -98 -130 0
-114 -117 -95 -99 -130 0
-114 -118 -95 -100 -130 0
-115 -116 -95 -98 -130 0
-115 -117 -95 -99 -130 0
-115 -118 -95 -100 -130 0
-115 -116 -96 -98 -130 0
-115 -117 -96 -99 -130 0
-115 -118 -96 -100 -130 0
-111 -116 -101 -108 -130 0
-111 -117 -101 -109 -130 0
-111 -118 -101 -110 -130 0
-111 -116 -102 -108 -130 0
-111 -117 -102 -109 -130 0
-111 -118 -102 -110 -130 0
-112 -116 -102 -108 -130 0
-112 -117 -102 -109 -130 0
-112 -118 -102 -110 -130 0
-112 -116 -103 -108 -130 0
-112 -117 -103 -109 -130 0
-112 -118 -103 -110 -130 0
-113 -116 -103 -108 -130 0
-113 -117 -103 -109 -130 0
-113 -118 -103 -110 -130 0
-113 -116 -104 -108 -130 0
-113 -117 -104 -109 -130 0
-113 -118 -104 -110 -130 0
-114 -116 -104 -108 -130 0
-114 -117 -104 -109 -130 0
-114 -118 -104 -110 -130 0
-114 -116 -105 -108 -130 0
-114 -117 -105 -109 -130 0
-114 -118 -105 -110 -130 0
-115 -116 -105 -108 -130 0
-115 -117 -105 -109 -130 0
-115 -118 -105 -110 -130 0
-115 -116 -106 -108 -130 0
-115 -117 -106 -109 -130 0
-115 -118 -106 -110 -130 0
-111 -116 -120 -125 -130 0
-111 -117 -120 -126 -130 0
-111 -118 -120 -127 -130 0
-111 -116 -121 -125 -130 0
-111 -117 -121 -126 -130 0
-111 -118 -121 -127 -130 0
-112 -116 -120 -125 -130 0
-112 -117 -120 -126 -130 0
-112 -118 -120 -127 -130 0
-112 -116 -121 -125 -130 0
-112 -117 -121 -126 -130 0
-112 -118 -121 -127 -130 0
-112 -116 -122 -125 -130 0
-112 -117 -122 -126 -130 0
-112 -118 -122 -127 -130 0
-113 -116 -120 -125 -130 0
-113 -117 -120 -126 -130 0
-113 -118 -120 -127 -130 0
-113 -116 -121 -125 -130 0
-113 -117 -121 -126 -130 0
-113 -118 -121 -127 -130 0
-113 -116 -122 -125 -130 0
-113 -117 -122 -126 -130 0
-113 -118 -122 -127 -130 0
-113 -116 -123 -125 -130 0
-113 -117 -123 -126 -130 0
-113 -118 -123 -127 -130 0
-114 -116 -121 -125 -130 0
-114 -117 -121 -126 -130 0
-114 -118 -121 -127 -130 0
-114 -116 -122 -125 -130 0
-114 -117 -122 -126 -130 0
-114 -118 -122 -127 -130 0
-114 -116 -123 -125 -130 0
-114 -117 -123 -126 -130 0
-114 -118 -123 -127 -130 0
-115 -116 -122 -125 -130 0
-115 -117 -122 -126 -130 0
-115 -118 -122 -127 -130 0
-115 -116 -123 -125 -130 0
-115 -117 -123 -126 -130 0
-115 -118 -123 -127 -130 0
-120 -124 -91 -98 -131 0
-120 -125 -91 -99 -131 0
-120 -126 -91 -100 -131 0
-120 -124 -92 -98 -131 0
-120 -125 -92 -99 -131 0
-120 -126 -92 -100 -131 0
-120 -124 -93 -98 -131 0
-120 -125 -93 -99 -131 0
-120 -126 -93 -100 -131 0
-121 -124 -92 -98 -131 0
-121 -125 -92 -99 -131 0
-121 -126 -92 -100 -131 0
-121 -124 -93 -98 -131 0
-121 -125 -93 -99 -131 0
-121 -126 -93 -100 -131 0
-121 -124 -94 -98 -131 0
-121 -125 -94 -99 -131 0
-121 -126 -94 -100 -131 0
-122 -124 -93 -98 -131 0
-122 -125 -93 -99 -131 0
-122 -126 -93 -100 -131 0
-122 -124 -94 -98 -131 0
-122 -125 -94 -99 -131 0
-122 -126 -94 -100 -131 0
-122 -124 -95 -98 -131 0
-122 -125 -95 -99 -131 0
-122 -126 -95 -100 -131 0
-123 -124 -94 -98 -131 0
-123 -125 -94 -99 -131 0
-123 -126 -94 -100 -131 0
-123 -124 -95 -98 -131 0
-123 -125 -95 -99 -131 0
-123 -126 -95 -100 -131 0
-123 -124 -96 -98 -131 0
-123 -125 -96 -99 -131 0
-123 -126 -96 -100 -131 0
-120 -124 -101 -108 -131 0
-120 -125 -101 -109 -131 0
-120 -126 -101 -110 -131 0
-120 -124 -102 -108 -131 0
-120 -125 -102 -109 -131 0
-120 -126 -102 -110 -131 0
-120 -124 -103 -108 -131 0
-120 -125 -103 -109 -131 0
-120 -126 -103 -110 -131 0
-121 -124 -102 -108 -131 0
-121 -125 -102 -109 -131 0
-121 -126 -102 -110 -131 0
-121 -124 -103 -108 -131 0
-121 -125 -103 -109 -131 0
-121 -126 -103 -110 -131 0
-121 -124 -104 -108 -131 0
-121 -125 -104 -109 -131 0
-121 -126 -104 -110 -131 0
-122 -124 -103 -108 -131 0
-122 -125 -103 -109 -131 0
-122 -126 -103 -110 -131 0
-122 -124 -104 -108 -131 0
-122 -125 -104 -109 -131 0
-122 -126 -104 -110 -131 0
-122 -124 -105 -108 -131 0
-122 -125 -105 -109 -131 0
-122 -126 -105 -110 -131 0
-123 -124 -104 -108 -131 0
-123 -125 -104 -109 -131 0
-123 -126 -104 -110 -131 0
-123 -124 -105 -108 -131 0
-123 -125 -105 -109 -131 0
-123 -126 -105 -110 -131 0
-123 -124 -106 -108 -131 0
-123 -125 -106 -109 -131 0
-123 -126 -106 -110 -131 0
-120 -124 -111 -117 -131 0
-120 -125 -111 -118 -131 0
-120 -126 -111 -119 -131 0
-120 -124 -112 -117 -131 0
-120 -125 -112 -118 -131 0
-120 -126 -112 -119 -131 0
-120 -124 -113 -117 -131 0
-120 -125 -113 -118 -131 0
-120 -126 -113 -119 -131 0
-121 -124 -111 -117 -131 0
-121 -125 -111 -118 -131 0
-121 -126 -111 -119 -131 0
-121 -124 -112 -117 -131 0
-121 -125 -112 -118 -131 0
-121 -126 -112 -119 -131 0
-121 -124 -113 -117 -131 0
-121 -125 -113 -118 -131 0
-121 -126 -113 -119 -131 0
-121 -124 -114 -117 -131 0
-121 -125 -114 -118 -131 0
-121 -126 -114 -119 -131 0
-122 -124 -112 -117 -131 0
-122 -125 -112 -118 -131 0
-122 -126 -112 -119 -131 0
-122 -124 -113 -117 -131 0
-122 -125 -113 -118 -131 0
-122 -126 -113 -119 -131 0
-122 -124 -114 -117 -131 0
-122 -125 -114 -118 -131 0
-122 -126 -114 -119 -131 0
-122 -124 -115 -117 -131 0
-122 -125 -115 -118 -131 0
-122 -126 -115 -119 -131 0
-123 -124 -113 -117 -131 0
-123 -125 -113 -118 -131 0
-123 -126 -113 -119 -131 0
-123 -124 -114 -117 -131 0
-123 -125 -114 -118 -131 0
-123 -126 -114 -119 -131 0
-123 -124 -115 -117 -131 0
-123 -125 -115 -118 -131 0
-123 -126 -115 -119 -131 0
132 133 134 135 136 137 0
-132 -133 0
-132 -134 0
-132 -135 0
-132 -136 0
-132 -137 0
-133 -134 0
-133 -135 0
-133 -136 0
-133 -137 0
-134 -135 0
-134 -136 0
-134 -137 0
-135 -136 0
-135 -137 0
-136 -137 0
138 139 140 141 0
-138 -139 0
-138 -140 0
-138 -141 0
-139 -140 0
-139 -141 0
-140 -141 0
142 143 144 145 146 147 0
-142 -143 0
-142 -144 0
-142 -145 0
-142 -146 0
-142 -147 0
-143 -144 0
-143 -145 0
-143 -146 0
-143 -147 0
-144 -145 0
-144 -146 0
-144 -147 0
-145 -146 0
-145 -147 0
-146 -147 0
148 149 150 151 0
-148 -149 0
-148 -150 0
-148 -151 0
-149 -150 0
-149 -151 0
-150 -151 0
152 153 154 155 156 0
-152 -153 0
-152 -154 0
-152 -155 0
-152 -156 0
-153 -154 0
-153 -155 0
-153 -156 0
-154 -155 0
-154 -156 0
-155 -156 0
157 158 159 160 0
-157 -158 0
-157 -159 0
-157 -160 0
-158 -159 0
-158 -160 0
-159 -160 0
161 162 163 164 0
-161 -162 0
-161 -163 0
-161 -164 0
-162 -163 0
-162 -164 0
-163 -164 0
165 166 167 168 0
-165 -166 0
-165 -167 0
-165 -168 0
-166 -167 0
-166 -168 0
-167 -168 0
-132 -138 -142 -148 0
-132 -139 -142 -149 0
-132 -140 -142 -150 0
-132 -141 -142 -151 0
-133 -138 -143 -148 0
-133 -139 -143 -149 0
-133 -140 -143 -150 0
-133 -141 -143 -151 0
-134 -138 -144 -148 0
-134 -139 -144 -149 0
-134 -140 -144 -150 0
-134 -141 -144 -151 0
-135 -138 -145 -148 0
-135 -139 -145 -149 0
-135 -140 -145 -150 0
-135 -141 -145 -151 0
-136 -138 -146 -148 0
-136 -139 -146 -149 0
-136 -140 -146 -150 0
-136 -141 -146 -151 0
-137 -138 -147 -148 0
-137 -139 -147 -149 0
-137 -140 -147 -150 0
-137 -141 -147 -151 0
-132 -138 -152 -157 0
-132 -139 -152 -158 0
-132 -140 -152 -159 0
-132 -141 -152 -160 0
-133 -138 -152 -157 0
-133 -139 -152 -158 0
-133 -140 -152 -159 0
-133 -141 -152 -160 0
-133 -138 -153 -157 0
-133 -139 -153 -158 0
-133 -140 -153 -159 0
-133 -141 -153 -160 0
-134 -138 -153 -157 0
-134 -139 -153 -158 0
-134 -140 -153 -159 0
-134 -141 -153 -160 0
-134 -138 -154 -157 0
-134 -139 -154 -158 0
-134 -140 -154 -159 0
-134 -141 -154 -160 0
-135 -138 -154 -157 0
-135 -139 -154 -158 0
-135 -140 -154 -159 0
-135 -141 -154 -160 0
-135 -138 -155 -157 0
-135 -139 -155 -158 0
-135 -140 -155 -159 0
-135 -141 -155 -160 0
-136 -138 -155 -157 0
-136 -139 -155 -158 0
-136 -140 -155 -159 0
-136 -141 -155 -160 0
-136 -138 -156 -157 0
-136 -139 -156 -158 0
-136 -140 -156 -159 0
-136 -141 -156 -160 0
-137 -138 -156 -157 0
-137 -139 -156 -158 0
-137 -140 -156 -159 0
-137 -141 -156 -160 0
-132 -138 -161 -165 0
-132 -139 -161 -166 0
-132 -140 -161 -167 0
-132 -141 -161 -168 0
-133 -138 -161 -165 0
-133 -139 -161 -166 0
-133 -140 -161 -167 0
-133 -141 -161 -168 0
-133 -138 -162 -165 0
-133 -139 -162 -166 0
-133 -140 -162 -167 0
-133 -141 -162 -168 0
-134 -138 -161 -165 0
-134 -139 -161 -166 0
-134 -140 -161 -167 0
-134 -141 -161 -168 0
-134 -138 -162 -165 0
-134 -139 -162 -166 0
-134 -140 -162 -167 0
-134 -141 -162 -168 0
-134 -138 -163 -165 0
-134 -139 -163 -166 0
-134 -140 -163 -167 0
-134 -141 -163 -168 0
-135 -138 -162 -165 0
-135 -139 -162 -166 0
-135 -140 -162 -167 0
-135 -141 -162 -168 0
-135 -138 -163 -165 0
-135 -139 -163 -166 0
-135 -140 -163 -167 0
-135 -141 -163 -168 0
-135 -138 -164 -165 0
-135 -139 -164 -166 0
-135 -140 -164 -167 0
-135 -141 -164 -168 0
-136 -138 -163 -165 0
-136 -139 -163 -166 0
-136 -140 -163 -167 0
-136 -141 -163 -168 0
-136 -138 -164 -165 0
-136 -139 -164 -166 0
-136 -140 -164 -167 0
-136 -141 -164 -168 0
-137 -138 -164 -165 0
-137 -139 -164 -166 0
-137 -140 -164 -167 0
-137 -141 -164 -168 0
-142 -148 -152 -157 0
-142 -149 -152 -158 0
-142 -150 -152 -159 0
-142 -151 -152 -160 0
-143 -148 -152 -157 0
-143 -149 -152 -158 0
-143 -150 -152 -159 0
-143 -151 -152 -160 0
-143 -148 -153 -157 0
-143 -149 -153 -158 0
-143 -150 -153 -159 0
-143 -151 -153 -160 0
-144 -148 -153 -157 0
-144 -149 -153 -158 0
-144 -150 -153 -159 0
-144 -151 -153 -160 0
-144 -148 -154 -157 0
-144 -149 -154 -158 0
-144 -150 -154 -159 0
-144 -151 -154 -160 0
-145 -148 -154 -157 0
-145 -149 -154 -158 0
-145 -150 -154 -159 0
-145 -151 -154 -160 0
-145 -148 -155 -157 0
-145 -149 -155 -158 0
-145 -150 -155 -159 0
-145 -151 -155 -160 0
-146 -148 -155 -157 0
-146 -149 -155 -158 0
-146 -150 -155 -159 0
-146 -151 -155 -160 0
-146 -148 -156 -157 0
-146 -149 -156 -158 0
-146 -150 -156 -159 0
-146 -151 -156 -160 0
-147 -148 -156 -157 0
-147 -149 -156 -158 0
-147 -150 -156 -159 0
-147 -151 -156 -160 0
-142 -148 -161 -165 0
-142 -149 -161 -166 0
-142 -150 -161 -167 0
-142 -151 -161 -168 0
-143 -148 -161 -165 0
-143 -149 -161 -166 0
-143 -150 -161 -167 0
-143 -151 -161 -168 0
-143 -148 -162 -165 0
-143 -149 -162 -166 0
-143 -150 -162 -167 0
-143 -151 -162 -168 0
-144 -148 -161 -165 0
-144 -149 -161 -166 0
-144 -150 -161 -167 0
-144 -151 -161 -168 0
-144 -148 -162 -165 0
-144 -149 -162 -166 0
-144 -150 -162 -167 0
-144 -151 -162 -168 0
-144 -148 -163 -165 0
-144 -149 -163 -166 0
-144 -150 -163 -167 0
-144 -151 -163 -168 0
-145 -148 -162 -165 0
-145 -149 -162 -166 0
-145 -150 -162 -167 0
-145 -151 -162 -168 0
-145 -148 -163 -165 0
-145 -149 -163 -166 0
-145 -150 -163 -167 0
-145 -151 -163 -168 0
-145 -148 -164 -165 0
-145 -149 -164 -166 0
-145 -150 -164 -167 0
-145 -151 -164 -168 0
-146 -148 -163 -165 0
-146 -149 -163 -166 0
-146 -150 -163 -167 0
-146 -151 -163 -168 0
-146 -148 -164 -165 0
-146 -149 -164 -166 0
-146 -150 -164 -167 0
-146 -151 -164 -168 0
-147 -148 -164 -165 0
-147 -149 -164 -166 0
-147 -150 -164 -167 0
-147 -151 -164 -168 0
-152 -157 -161 -165 0
-152 -158 -161 -166 0
-152 -159 -161 -167 0
-152 -160 -161 -168 0
-152 -157 -162 -165 0
-152 -158 -162 -166 0
-152 -159 -162 -167 0
-152 -160 -162 -168 0
-153 -157 -161 -165 0
-153 -158 -161 -166 0
-153 -159 -161 -167 0
-153 -160 -161 -168 0
-153 -157 -162 -165 0
-153 -158 -162 -166 0
-153 -159 -162 -167 0
-153 -160 -162 -168 0
-153 -157 -163 -165 0
-153 -158 -163 -166 0
-153 -159 -163 -167 0
-153 -160 -163 -168 0
-154 -157 -161 -165 0
-154 -158 -161 -166 0
-154 -159 -161 -167 0
-154 -160 -161 -168 0
-154 -157 -162 -165 0
-154 -158 -162 -166 0
-154 -159 -162 -167 0
-154 -160 -162 -168 0
-154 -157 -163 -165 0
-154 -158 -163 -166 0
-154 -159 -163 -167 0
-154 -160 -163 -168 0
-154 -157 -164 -165 0
-154 -158 -164 -166 0
-154 -159 -164 -167 0
-154 -160 -164 -168 0
-155 -157 -162 -165 0
-155 -158 -162 -166 0
-155 -159 -162 -167 0
-155 -160 -162 -168 0
-155 -157 -163 -165 0
-155 -158 -163 -166 0
-155 -159 -163 -167 0
-155 -160 -163 -168 0
-155 -157 -164 -165 0
-155 -158 -164 -166 0
-155 -159 -164 -167 0
-155 -160 -164 -168 0
-156 -157 -163 -165 0
-156 -158 -163 -166 0
-156 -159 -163 -167 0
-156 -160 -163 -168 0
-156 -157 -164 -165 0
-156 -158 -164 -166 0
-156 -159 -164 -167 0
-156 -160 -164 -168 0
-132 -138 -142 -149 -169 0
-132 -139 -142 -150 -169 0
-132 -140 -142 -151 -169 0
-133 -138 -143 -149 -169 0
-133 -139 -143 -150 -169 0
-133 -140 -143 -151 -169 0
-134 -138 -144 -149 -169 0
-134 -139 -144 -150 -169 0
-134 -140 -144 -151 -169 0
-135 -138 -145 -149 -169 0
-135 -139 -145 -150 -169 0
-135 -140 -145 -151 -169 0
-136 -138 -146 -149 -169 0
-136 -139 -146 -150 -169 0
-136 -140 -146 -151 -169 0
-137 -138 -147 -149 -169 0
-137 -139 -147 -150 -169 0
-137 -140 -147 -151 -169 0
-132 -138 -152 -158 -169 0
-132 -139 -152 -159 -169 0
-132 -140 -152 -160 -169 0
-133 -138 -152 -158 -169 0
-133 -139 -152 -159 -169 0
-133 -140 -152 -160 -169 0
-133 -138 -153 -158 -169 0
-133 -139 -153 -159 -169 0
-133 -140 -153 -160 -169 0
-134 -138 -153 -158 -169 0
-134 -139 -153 -159 -169 0
-134 -140 -153 -160 -169 0
-134 -138 -154 -158 -169 0
-134 -139 -154 -159 -169 0
-134 -140 -154 -160 -169 0
-135 -138 -154 -158 -169 0
-135 -139 -154 -159 -169 0
-135 -140 -154 -160 -169 0
-135 -138 -155 -158 -169 0
-135 -139 -155 -159 -169 0
-135 -140 -155 -160 -169 0
-136 -138 -155 -158 -169 0
-136 -139 -155 -159 -169 0
-136 -140 -155 -160 -169 0
-136 -138 -156 -158 -169 0
-136 -139 -156 -159 -169 0
-136 -140 -156 -160 -169 0
-137 -138 -156 -158 -169 0
-137 -139 -156 -159 -169 0
-137 -140 -156 -160 -169 0
-132 -138 -161 -166 -169 0
-132 -139 -161 -167 -169 0
-132 -140 -161 -168 -169 0
-133 -138 -161 -166 -169 0
-133 -139 -161 -167 -169 0
-133 -140 -161 -168 -169 0
-133 -138 -162 -166 -169 0
-133 -139 -162 -167 -169 0
-133 -140 -162 -168 -169 0
-134 -138 -161 -166 -169 0
-134 -139 -161 -167 -169 0
-134 -140 -161 -168 -169 0
-134 -138 -162 -166 -169 0
-134 -139 -162 -167 -169 0
-134 -140 -162 -168 -169 0
-134 -138 -163 -166 -169 0
-134 -139 -163 -167 -169 0
-134 -140 -163 -168 -169 0
-135 -138 -162 -166 -169 0
-135 -139 -162 -167 -169 0
-135 -140 -162 -168 -169 0
-135 -138 -163 -166 -169 0
-135 -139 -163 -167 -169 0
-135 -140 -163 -168 -169 0
-135 -138 -164 -166 -169 0
-135 -139 -164 -167 -169 0
-135 -140 -164 -168 -169 0
-136 -138 -163 -166 -169 0
-136 -139 -163 -167 -169 0
-136 -140 -163 -168 -169 0
-136 -138 -164 -166 -169 0
-136 -139 -164 -167 -169 0
-136 -140 -164 -168 -169 0
-137 -138 -164 -166 -169 0
-137 -139 -164 -167 -169 0
-137 -140 -164 -168 -169 0
-142 -148 -132 -139 -170 0
-142 -149 -132 -140 -170 0
-142 -150 -132 -141 -170 0
-143 -148 -133 -139 -170 0
-143 -149 -133 -140 -170 0
-143 -150 -133 -141 -170 0
-144 -148 -134 -139 -170 0
-144 -149 -134 -140 -170 0
-144 -150 -134 -141 -170 0
-145 -148 -135 -139 -170 0
-145 -149 -135 -140 -170 0
-145 -150 -135 -141 -170 0
-146 -148 -136 -139 -170 0
-146 -149 -136 -140 -170 0
-146 -150 -136 -141 -170 0
-147 -148 -137 -139 -170 0
-147 -149 -137 -140 -170 0
-147 -150 -137 -141 -170 0
-142 -148 -152 -158 -170 0
-142 -149 -152 -159 -170 0
-142 -150 -152 -160 -170 0
-143 -148 -152 -158 -170 0
-143 -149 -152 -159 -170 0
-143 -150 -152 -160 -170 0
-143 -148 -153 -158 -170 0
-143 -149 -153 -159 -170 0
-143 -150 -153 -160 -170 0
-144 -148 -153 -158 -170 0
-144 -149 -153 -159 -170 0
-144 -150 -153 -160 -170 0
-144 -148 -154 -158 -170 0
-144 -149 -154 -159 -170 0
-144 -150 -154 -160 -170 0
-145 -148 -154 -158 -170 0
-145 -149 -154 -159 -170 0
-145 -150 -154 -160 -170 0
-145 -148 -155 -158 -170 0
-145 -149 -155 -159 -170 0
-145 -150 -155 -160 -170 0
-146 -148 -155 -158 -170 0
-146 -149 -155 -159 -170 0
-146 -150 -155 -160 -170 0
-146 -148 -156 -158 -170 0
-146 -149 -156 -159 -170 0
-146 -150 -156 -160 -170 0
-147 -148 -156 -158 -170 0
-147 -149 -156 -159 -170 0
-147 -150 -156 -160 -170 0
-142 -148 -161 -166 -170 0
-142 -149 -161 -167 -170 0
-142 -150 -161 -168 -170 0
-143 -148 -161 -166 -170 0
-143 -149 -161 -167 -170 0
-143 -150 -161 -168 -170 0
-143 -148 -162 -166 -170 0
-143 -149 -162 -167 -170 0
-143 -150 -162 -168 -170 0
-144 -148 -161 -166 -170 0
-144 -149 -161 -167 -170 0
-144 -150 -161 -168 -170 0
-144 -148 -162 -166 -170 0
-144 -149 -162 -167 -170 0
-144 -150 -162 -168 -170 0
-144 -148 -163 -166 -170 0
-144 -149 -163 -167 -170 0
-144 -150 -163 -168 -170 0
-145 -148 -162 -166 -170 0
-145 -149 -162 -167 -170 0
-145 -150 -162 -168 -170 0
-145 -148 -163 -166 -170 0
-145 -149 -163 -167 -170 0
-145 -150 -163 -168 -170 0
-145 -148 -164 -166 -170 0
-145 -149 -164 -167 -170 0
-145 -150 -164 -168 -170 0
-146 -148 -163 -166 -170 0
-146 -149 -163 -167 -170 0
-146 -150 -163 -168 -170 0
-146 -148 -164 -166 -170 0
-146 -149 -164 -167 -170 0
-146 -150 -164 -168 -170 0
-147 -148 -164 -166 -170 0
-147 -149 -164 -167 -170 0
-147 -150 -164 -168 -170 0
-152 -157 -132 -139 -171 0
-152 -158 -132 -140 -171 0
-152 -159 -132 -141 -171 0
-152 -157 -133 -139 -171 0
-152 -158 -133 -140 -171 0
-152 -159 -133 -141 -171 0
-153 -157 -133 -139 -171 0
-153 -158 -133 -140 -171 0
-153 -159 -133 -141 -171 0
-153 -157 -134 -139 -171 0
-153 -158 -134 -140 -171 0
-153 -159 -134 -141 -171 0
-154 -157 -134 -139 -171 0
-154 -158 -134 -140 -171 0
-154 -159 -134 -141 -171 0
-154 -157 -135 -139 -171 0
-154 -158 -135 -140 -171 0
-154 -159 -135 -141 -171 0
-155 -157 -135 -139 -171 0
-155 -158 -135 -140 -171 0
-155 -159 -135 -141 -171 0
-155 -157 -136 -139 -171 0
-155 -158 -136 -140 -171 0
-155 -159 -136 -141 -171 0
-156 -157 -136 -139 -171 0
-156 -158 -136 -140 -171 0
-156 -159 -136 -141 -171 0
-156 -157 -137 -139 -171 0
-156 -158 -137 -140 -171 0
-156 -159 -137 -141 -171 0
-152 -157 -142 -149 -171 0
-152 -158 -142 -150 -171 0
-152 -159 -142 -151 -171 0
-152 -157 -143 -149 -171 0
-152 -158 -143 -150 -171 0
-152 -159 -143 -151 -171 0
-153 -157 -143 -149 -171 0
-153 -158 -143 -150 -171 0
-153 -159 -143 -151 -171 0
-153 -157 -144 -149 -171 0
-153 -158 -144 -150 -171 0
-153 -159 -144 -151 -171 0
-154 -157 -144 -149 -171 0
-154 -158 -144 -150 -171 0
-154 -159 -144 -151 -171 0
-154 -157 -145 -149 -171 0
-154 -158 -145 -150 -171 0
-154 -159 -145 -151 -171 0
-155 -157 -145 -149 -171 0
-155 -158 -145 -150 -171 0
-155 -159 -145 -151 -171 0
-155 -157 -146 -149 -171 0
-155 -158 -146 -150 -171 0
-155 -159 -146 -151 -171 0
-156 -157 -146 -149 -171 0
-156 -158 -146 -150 -171 0
-156 -159 -146 -151 -171 0
-156 -157 -147 -149 -171 0
-156 -158 -147 -150 -171 0
-156 -159 -147 -151 -171 0
-152 -157 -161 -166 -171 0
-152 -158 -161 -167 -171 0
-152 -159 -161 -168 -171 0
-152 -157 -162 -166 -171 0
-152 -158 -162 -167 -171 0
-152 -159 -162 -168 -171 0
-153 -157 -161 -166 -171 0
-153 -158 -161 -167 -171 0
-153 -159 -161 -168 -171 0
-153 -157 -162 -166 -171 0
-153 -158 -162 -167 -171 0
-153 -159 -162 -168 -171 0
-153 -157 -163 -166 -171 0
-153 -158 -163 -167 -171 0
-153 -159 -163 -168 -171 0
-154 -157 -161 -166 -171 0
-154 -158 -161 -167 -171 0
-154 -159 -161 -168 -171 0
-154 -157 -162 -166 -171 0
-154 -158 -162 -167 -171 0
-154 -159 -162 -168 -171 0
-154 -157 -163 -166 -171 0
-154 -158 -163 -167 -171 0
-154 -159 -163 -168 -171 0
-154 -157 -164 -166 -171 0
-154 -158 -164 -167 -171 0
-154 -159 -164 -168 -171 0
-155 -157 -162 -166 -171 0
-155 -158 -162 -167 -171 0
-155 -159 -162 -168 -171 0
-155 -157 -163 -166 -171 0
-155 -158 -163 -167 -171 0
-155 -159 -163 -168 -171 0
-155 -157 -164 -166 -171 0
-155 -158 -164 -167 -171 0
-155 -159 -164 -168 -171 0
-156 -157 -163 -166 -171 0
-156 -158 -163 -167 -171 0
-156 -159 -163 -168 -171 0
-156 -157 -164 -166 -171 0
-156 -158 -164 -167 -171 0
-156 -159 -164 -168 -171 0
-161 -165 -132 -139 -172 0
-161 -166 -132 -140 -172 0
-161 -167 -132 -141 -172 0
-161 -165 -133 -139 -172 0
-161 -166 -133 -140 -172 0
-161 -167 -133 -141 -172 0
-161 -165 -134 -139 -172 0
-161 -166 -134 -140 -172 0
-161 -167 -134 -141 -172 0
-162 -165 -133 -139 -172 0
-162 -166 -133 -140 -172 0
-162 -167 -133 -141 -172 0
-162 -165 -134 -139 -172 0
-162 -166 -134 -140 -172 0
-162 -167 -134 -141 -172 0
-162 -165 -135 -139 -172 0
-162 -166 -135 -140 -172 0
-162 -167 -135 -141 -172 0
-163 -165 -134 -139 -172 0
-163 -166 -134 -140 -172 0
-163 -167 -134 -141 -172 0
-163 -165 -135 -139 -172 0
-163 -166 -135 -140 -172 0
-163 -167 -135 -141 -172 0
-163 -165 -136 -139 -172 0
-163 -166 -136 -140 -172 0
-163 -167 -136 -141 -172 0
-164 -165 -135 -139 -172 0
-164 -166 -135 -140 -172 0
-164 -167 -135 -141 -172 0
-164 -165 -136 -139 -172 0
-164 -166 -136 -140 -172 0
-164 -167 -136 -141 -172 0
-164 -165 -137 -139 -172 0
-164 -166 -137 -140 -172 0
-164 -167 -137 -141 -172 0
-161 -165 -142 -149 -172 0
-161 -166 -142 -150 -172 0
-161 -167 -142 -151 -172 0
-161 -165 -143 -149 -172 0
-161 -166 -143 -150 -172 0
-161 -167 -143 -151 -172 0
-161 -165 -144 -149 -172 0
-161 -166 -144 -150 -172 0
-161 -167 -144 -151 -172 0
-162 -165 -143 -149 -172 0
-162 -166 -143 -150 -172 0
-162 -167 -143 -151 -172 0
-162 -165 -144 -149 -172 0
-162 -166 -144 -150 -172 0
-162 -167 -144 -151 -172 0
-162 -165 -145 -149 -172 0
-162 -166 -145 -150 -172 0
-162 -167 -145 -151 -172 0
-163 -165 -144 -149 -172 0
-163 -166 -144 -150 -172 0
-163 -167 -144 -151 -172 0
-163 -165 -145 -149 -172 0
-163 -166 -145 -150 -172 0
-163 -167 -145 -151 -172 0
-163 -165 -146 -149 -172 0
-163 -166 -146 -150 -172 0
-163 -167 -146 -151 -172 0
-164 -165 -145 -149 -172 0
-164 -166 -145 -150 -172 0
-164 -167 -145 -151 -172 0
-164 -165 -146 -149 -172 0
-164 -166 -146 -150 -172 0
-164 -167 -146 -151 -172 0
-164 -165 -147 -149 -172 0
-164 -166 -147 -150 -172 0
-164 -167 -147 -151 -172 0
-161 -165 -152 -158 -172 0
-161 -166 -152 -159 -172 0
-161 -167 -152 -160 -172 0
-161 -165 -153 -158 -172 0
-161 -166 -153 -159 -172 0
-161 -167 -153 -160 -172 0
-161 -165 -154 -158 -172 0
-161 -166 -154 -159 -172 0
-161 -167 -154 -160 -172 0
-162 -165 -152 -158 -172 0
-162 -166 -152 -159 -172 0
-162 -167 -152 -160 -172 0
-162 -165 -153 -158 -172 0
-162 -166 -153 -159 -172 0
-162 -167 -153 -160 -172 0
-162 -165 -154 -158 -172 0
-162 -166 -154 -159 -172 0
-162 -167 -154 -160 -172 0
-162 -165 -155 -158 -172 0
-162 -166 -155 -159 -172 0
-162 -167 -155 -160 -172 0
-163 -165 -153 -158 -172 0
-163 -166 -153 -159 -172 0
-163 -167 -153 -160 -172 0
-163 -165 -154 -158 -172 0
-163 -166 -154 -159 -172 0
-163 -167 -154 -160 -172 0
-163 -165 -155 -158 -172 0
-163 -166 -155 -159 -172 0
-163 -167 -155 -160 -172 0
-163 -165 -156 -158 -172 0
-163 -166 -156 -159 -172 0
-163 -167 -156 -160 -172 0
-164 -165 -154 -158 -172 0
-164 -166 -154 -159 -172 0
-164 -167 -154 -160 -172 0
-164 -165 -155 -158 -172 0
-164 -166 -155 -159 -172 0
-164 -167 -155 -160 -172 0
-164 -165 -156 -158 -172 0
-164 -166 -156 -159 -172 0
-164 -167 -156 -160 -172 0
173 174 175 176 177 178 0
-173 -174 0
-173 -175 0
-173 -176 0
-173 -177 0
-173 -178 0
-174 -175 0
-174 -176 0
-174 -177 0
-174 -178 0
-175 -176 0
-175 -177 0
-175 -178 0
-176 -177 0
-176 -178 0
-177 -178 0
179 180 181 182 0
-179 -180 0
-179 -181 0
-179 -182 0
-180 -181 0
-180 -182 0
-181 -182 0
183 184 185 186 187 188 0
-183 -184 0
-183 -185 0
-183 -186 0
-183 -187 0
-183 -188 0
-184 -185 0
-184 -186 0
-184 -187 0
-184 -188 0
-185 -186 0
-185 -187 0
-185 -188 0
-186 -187 0
-186 -188 0
-187 -188 0
189 190 191 192 0
-189 -190 0
-189 -191 0
-189 -192 0
-190 -191 0
-190 -192 0
-191 -192 0
193 194 195 196 197 0
-193 -194 0
-193 -195 0
-193 -196 0
-193 -197 0
-194 -195 0
-194 -196 0
-194 -197 0
-195 -196 0
-195 -197 0
-196 -197 0
198 199 200 201 0
-198 -199 0
-198 -200 0
-198 -201 0
-199 -200 0
-199 -201 0
-200 -201 0
202 203 204 205 0
-202 -203 0
-202 -204 0
-202 -205 0
-203 -204 0
-203 -205 0
-204 -205 0
206 207 208 209 0
-206 -207 0
-206 -208 0
-206 -209 0
-207 -208 0
-207 -209 0
-208 -209 0
-173 -179 -183 -189 0
-173 -180 -183 -190 0
-173 -181 -183 -191 0
-173 -182 -183 -192 0
-174 -179 -184 -189 0
-174 -180 -184 -190 0
-174 -181 -184 -191 0
-174 -182 -184 -192 0
-175 -179 -185 -189 0
-175 -180 -185 -190 0
-175 -181 -185 -191 0
-175 -182 -185 -192 0
-176 -179 -186 -189 0
-176 -180 -186 -190 0
-176 -181 -186 -191 0
-176 -182 -186 -192 0
-177 -179 -187 -189 0
-177 -180 -187 -190 0
-177 -181 -187 -191 0
-177 -182 -187 -192 0
-178 -179 -188 -189 0
-178 -180 -188 -190 0
-178 -181 -188 -191 0
-178 -182 -188 -192 0
-173 -179 -193 -198 0
-173 -180 -193 -199 0
-173 -181 -193 -200 0
-173 -182 -193 -201 0
-174 -179 -193 -198 0
-174 -180 -193 -199 0
-174 -181 -193 -200 0
-174 -182 -193 -201 0
-174 -179 -194 -198 0
-174 -180 -194 -199 0
-174 -181 -194 -200 0
-174 -182 -194 -201 0
-175 -179 -194 -198 0
-175 -180 -194 -199 0
-175 -181 -194 -200 0
-175 -182 -194 -201 0
-175 -179 -195 -198 0
-175 -180 -195 -199 0
-175 -181 -195 -200 0
-175 -182 -195 -201 0
-176 -179 -195 -198 0
-176 -180 -195 -199 0
-176 -181 -195 -200 0
-176 -182 -195 -201 0
-176 -179 -196 -198 0
-176 -180 -196 -199 0
-176 -181 -196 -200 0
-176 -182 -196 -201 0
-177 -179 -196 -198 0
-177 -180 -196 -199 0
-177 -181 -196 -200 0
-177 -182 -196 -201 0
-177 -179 -197 -198 0
-177 -180 -197 -199 0
-177 -181 -197 -200 0
-177 -182 -197 -201 0
-178 -179 -197 -198 0
-178 -180 -197 -199 0
-178 -181 -197 -200 0
-178 -182 -197 -201 0
-173 -179 -202 -206 0
-173 -180 -202 -207 0
-173 -181 -202 -208 0
-173 -182 -202 -209 0
-174 -179 -202 -206 0
-174 -180 -202 -207 0
-174 -181 -202 -208 0
-174 -182 -202 -209 0
-174 -179 -203 -206 0
-174 -180 -203 -207 0
-174 -181 -203 -208 0
-174 -182 -203 -209 0
-175 -179 -202 -206 0
-175 -180 -202 -207 0
-175 -181 -202 -208 0
-175 -182 -202 -209 0
-175 -179 -203 -206 0
-175 -180 -203 -207 0
-175 -181 -203 -208 0
-175 -182 -203 -209 0
-175 -179 -204 -206 0
-175 -180 -204 -207 0
-175 -181 -204 -208 0
-175 -182 -204 -209 0
-176 -179 -203 -206 0
-176 -180 -203 -207 0
-176 -181 -203 -208 0
-176 -182 -203 -209 0
-176 -179 -204 -206 0
-176 -180 -204 -207 0
-176 -181 -204 -208 0
-176 -182 -204 -209 0
-176 -179 -205 -206 0
-176 -180 -205 -207 0
-176 -181 -205 -208 0
-176 -182 -205 -209 0
-177 -179 -204 -206 0
-177 -180 -204 -207 0
-177 -181 -204 -208 0
-177 -182 -204 -209 0
-177 -179 -205 -206 0
-177 -180 -205 -207 0
-177 -181 -205 -208 0
-177 -182 -205 -209 0
-178 -179 -205 -206 0
-178 -180 -205 -207 0
-178 -181 -205 -208 0
-178 -182 -205 -209 0
-183 -189 -193 -198 0
-183 -190 -193 -199 0
-183 -191 -193 -200 0
-183 -192 -193 -201 0
-184 -189 -193 -198 0
-184 -190 -193 -199 0
-184 -191 -193 -200 0
-184 -192 -193 -201 0
-184 -189 -194 -198 0
-184 -190 -194 -199 0
-184 -191 -194 -200 0
-184 -192 -194 -201 0
-185 -189 -194 -198 0
-185 -190 -194 -199 0
-185 -191 -194 -200 0
-185 -192 -194 -201 0
-185 -189 -195 -198 0
-185 -190 -195 -199 0
-185 -191 -195 -200 0
-185 -192 -195 -201 0
-186 -189 -195 -198 0
-186 -190 -195 -199 0
-186 -191 -195 -200 0
-186 -192 -195 -201 0
-186 -189 -196 -198 0
-186 -190 -196 -199 0
-186 -191 -196 -200 0
-186 -192 -196 -201 0
-187 -189 -196 -198 0
-187 -190 -196 -199 0
-187 -191 -196 -200 0
-187 -192 -196 -201 0
-187 -189 -197 -198 0
-187 -190 -197 -199 0
-187 -191 -197 -200 0
-187 -192 -197 -201 0
-188 -189 -197 -198 0
-188 -190 -197 -199 0
-188 -191 -197 -200 0
-188 -192 -197 -201 0
-183 -189 -202 -206 0
-183 -190 -202 -207 0
-183 -191 -202 -208 0
-183 -192 -202 -209 0
-184 -189 -202 -206 0
-184 -190 -202 -207 0
-184 -191 -202 -208 0
-184 -192 -202 -209 0
-184 -189 -203 -206 0
-184 -190 -203 -207 0
-184 -191 -203 -208 0
-184 -192 -203 -209 0
-185 -189 -202 -206 0
-185 -190 -202 -207 0
-185 -191 -202 -208 0
-185 -192 -202 -209 0
-185 -189 -203 -206 0
-185 -190 -203 -207 0
-185 -191 -203 -208 0
-185 -192 -203 -209 0
-185 -189 -204 -206 0
-185 -190 -204 -207 0
-185 -191 -204 -208 0
-185 -192 -204 -209 0
-186 -189 -203 -206 0
-186 -190 -203 -207 0
-186 -191 -203 -208 0
-186 -192 -203 -209 0
-186 -189 -204 -206 0
-186 -190 -204 -207 0
-186 -191 -204 -208 0
-186 -192 -204 -209 0
-186 -189 -205 -206 0
-186 -190 -205 -207 0
-186 -191 -205 -208 0
-186 -192 -205 -209 0
-187 -189 -204 -206 0
-187 -190 -204 -207 0
-187 -191 -204 -208 0
-187 -192 -204 -209 0
-187 -189 -205 -206 0
-187 -190 -205 -207 0
-187 -191 -205 -208 0
-187 -192 -205 -209 0
-188 -189 -205 -206 0
-188 -190 -205 -207 0
-188 -191 -205 -208 0
-188 -192 -205 -209 0
-193 -198 -202 -206 0
-193 -199 -202 -207 0
-193 -200 -202 -208 0
-193 -201 -202 -209 0
-193 -198 -203 -206 0
-193 -199 -203 -207 0
-193 -200 -203 -208 0
-193 -201 -203 -209 0
-194 -198 -202 -206 0
-194 -199 -202 -207 0
-194 -200 -202 -208 0
-194 -201 -202 -209 0
-194 -198 -203 -206 0
-194 -199 -203 -207 0
-194 -200 -203 -208 0
-194 -201 -203 -209 0
-194 -198 -204 -206 0
-194 -199 -204 -207 0
-194 -200 -204 -208 0
-194 -201 -204 -209 0
-195 -198 -202 -206 0
-195 -199 -202 -207 0
-195 -200 -202 -208 0
-195 -201 -202 -209 0
-195 -198 -203 -206 0
-195 -199 -203 -207 0
-195 -200 -203 -208 0
-195 -201 -203 -209 0
-195 -198 -204 -206 0
-195 -199 -204 -207 0
-195 -200 -204 -208 0
-195 -201 -204 -209 0
-195 -198 -205 -206 0
-195 -199 -205 -207 0
-195 -200 -205 -208 0
-195 -201 -205 -209 0
-196 -198 -203 -206 0
-196 -199 -203 -207 0
-196 -200 -203 -208 0
-196 -201 -203 -209 0
-196 -198 -204 -206 0
-196 -199 -204 -207 0
-196 -200 -204 -208 0
-196 -201 -204 -209 0
-196 -198 -205 -206 0
-196 -199 -205 -207 0
-196 -200 -205 -208 0
-196 -201 -205 -209 0
-197 -198 -204 -206 0
-197 -199 -204 -207 0
-197 -200 -204 -208 0
-197 -201 -204 -209 0
-197 -198 -205 -206 0
-197 -199 -205 -207 0
-197 -200 -205 -208 0
-197 -201 -205 -209 0
-173 -179 -183 -190 -210 0
-173 -180 -183 -191 -210 0
-173 -181 -183 -192 -210 0
-174 -179 -184 -190 -210 0
-174 -180 -184 -191 -210 0
-174 -181 -184 -192 -210 0
-175 -179 -185 -190 -210 0
-175 -180 -185 -191 -210 0
-175 -181 -185 -192 -210 0
-176 -179 -186 -190 -210 0
-176 -180 -186 -191 -210 0
-176 -181 -186 -192 -210 0
-177 -179 -187 -190 -210 0
-177 -180 -187 -191 -210 0
-177 -181 -187 -192 -210 0
-178 -179 -188 -190 -210 0
-178 -180 -188 -191 -210 0
-178 -181 -188 -192 -210 0
-173 -179 -193 -199 -210 0
-173 -180 -193 -200 -210 0
-173 -181 -193 -201 -210 0
-174 -179 -193 -199 -210 0
-174 -180 -193 -200 -210 0
-174 -181 -193 -201 -210 0
-174 -179 -194 -199 -210 0
-174 -180 -194 -200 -210 0
-174 -181 -194 -201 -210 0
-175 -179 -194 -199 -210 0
-175 -180 -194 -200 -210 0
-175 -181 -194 -201 -210 0
-175 -179 -195 -199 -210 0
-175 -180 -195 -200 -210 0
-175 -181 -195 -201 -210 0
-176 -179 -195 -199 -210 0
-176 -180 -195 -200 -210 0
-176 -181 -195 -201 -210 0
-176 -179 -196 -199 -210 0
-176 -180 -196 -200 -210 0
-176 -181 -196 -201 -210 0
-177 -179 -196 -199 -210 0
-177 -180 -196 -200 -210 0
-177 -181 -196 -201 -210 0
-177 -179 -197 -199 -210 0
-177 -180 -197 -200 -210 0
-177 -181 -197 -201 -210 0
-178 -179 -197 -199 -210 0
-178 -180 -197 -200 -210 0
-178 -181 -197 -201 -210 0
-173 -179 -202 -207 -210 0
-173 -180 -202 -208 -210 0
-173 -181 -202 -209 -210 0
-174 -179 -202 -207 -210 0
-174 -180 -202 -208 -210 0
-174 -181 -202 -209 -210 0
-174 -179 -203 -207 -210 0
-174 -180 -203 -208 -210 0
-174 -181 -203 -209 -210 0
-175 -179 -202 -207 -210 0
-175 -180 -202 -208 -210 0
-175 -181 -202 -209 -210 0
-175 -179 -203 -207 -210 0
-175 -180 -203 -208 -210 0
-175 -181 -203 -209 -210 0
-175 -179 -204 -207 -210 0
-175 -180 -204 -208 -210 0
-175 -181 -204 -209 -210 0
-176 -179 -203 -207 -210 0
-176 -180 -203 -208 -210 0
-176 -181 -203 -209 -210 0
-176 -179 -204 -207 -210 0
-176 -180 -204 -208 -210 0
-176 -181 -204 -209 -210 0
-176 -179 -205 -207 -210 0
-176 -180 -205 -208 -210 0
-176 -181 -205 -209 -210 0
-177 -179 -204 -207 -210 0
-177 -180 -204 -208 -210 0
-177 -181 -204 -209 -210 0
-177 -179 -205 -207 -210 0
-177 -180 -205 -208 -210 0
-177 -181 -205 -209 -210 0
-178 -179 -205 -207 -210 0
-178 -180 -205 -208 -210 0
-178 -181 -205 -209 -210 0
-183 -189 -173 -180 -211 0
-183 -190 -173 -181 -211 0
-183 -191 -173 -182 -211 0
-184 -189 -174 -180 -211 0
-184 -190 -174 -181 -211 0
-184 -191 -174 -182 -211 0
-185 -189 -175 -180 -211 0
-185 -190 -175 -181 -211 0
-185 -191 -175 -182 -211 0
-186 -189 -176 -180 -211 0
-186 -190 -176 -181 -211 0
-186 -191 -176 -182 -211 0
-187 -189 -177 -180 -211 0
-187 -190 -177 -181 -211 0
-187 -191 -177 -182 -211 0
-188 -189 -178 -180 -211 0
-188 -190 -178 -181 -211 0
-188 -191 -178 -182 -211 0
-183 -189 -193 -199 -211 0
-183 -190 -193 -200 -211 0
-183 -191 -193 -201 -211 0
-184 -189 -193 -199 -211 0
-184 -190 -193 -200 -211 0
-184 -191 -193 -201 -211 0
-184 -189 -194 -199 -211 0
-184 -190 -194 -200 -211 0
-184 -191 -194 -201 -211 0
-185 -189 -194 -199 -211 0
-185 -190 -194 -200 -211 0
-185 -191 -194 -201 -211 0
-185 -189 -195 -199 -211 0
-185 -190 -195 -200 -211 0
-185 -191 -195 -201 -211 0
-186 -189 -195 -199 -211 0
-186 -190 -195 -200 -211 0
-186 -191 -195 -201 -211 0
-186 -189 -196 -199 -211 0
-186 -190 -196 -200 -211 0
-186 -191 -196 -201 -211 0
-187 -189 -196 -199 -211 0
-187 -190 -196 -200 -211 0
-187 -191 -196 -201 -211 0
-187 -189 -197 -199 -211 0
-187 -190 -197 -200 -211 0
-187 -191 -197 -201 -211 0
-188 -189 -197 -199 -211 0
-188 -190 -197 -200 -211 0
-188 -191 -197 -201 -211 0
-183 -189 -202 -207 -211 0
-183 -190 -202 -208 -211 0
-183 -191 -202 -209 -211 0
-184 -189 -202 -207 -211 0
-184 -190 -202 -208 -211 0
-184 -191 -202 -209 -211 0
-184 -189 -203 -207 -211 0
-184 -190 -203 -208 -211 0
-184 -191 -203 -209 -211 0
-185 -189 -202 -207 -211 0
-185 -190 -202 -208 -211 0
-185 -191 -202 -209 -211 0
-185 -189 -203 -207 -211 0
-185 -190 -203 -208 -211 0
-185 -191 -203 -209 -211 0
-185 -189 -204 -207 -211 0
-185 -190 -204 -208 -211 0
-185 -191 -204 -209 -211 0
-186 -189 -203 -207 -211 0
-186 -190 -203 -208 -211 0
-186 -191 -203 -209 -211 0
-186 -189 -204 -207 -211 0
-186 -190 -204 -208 -211 0
-186 -191 -204 -209 -211 0
-186 -189 -205 -207 -211 0
-186 -190 -205 -208 -211 0
-186 -191 -205 -209 -211 0
-187 -189 -204 -207 -211 0
-187 -190 -204 -208 -211 0
-187 -191 -204 -209 -211 0
-187 -189 -205 -207 -211 0
-187 -190 -205 -208 -211 0
-187 -191 -205 -209 -211 0
-188 -189 -205 -207 -211 0
-188 -190 -205 -208 -211 0
-188 -191 -205 -209 -211 0
-193 -198 -173 -180 -212 0
-193 -199 -173 -181 -212 0
-193 -200 -173 -182 -212 0
-193 -198 -174 -180 -212 0
-193 -199 -174 -181 -212 0
-193 -200 -174 -182 -212 0
-194 -198 -174 -180 -212 0
-194 -199 -174 -181 -212 0
-194 -200 -174 -182 -212 0
-194 -198 -175 -180 -212 0
-194 -199 -175 -181 -212 0
-194 -200 -175 -182 -212 0
-195 -198 -175 -180 -212 0
-195 -199 -175 -181 -212 0
-195 -200 -175 -182 -212 0
-195 -198 -176 -180 -212 0
-195 -199 -176 -181 -212 0
-195 -200 -176 -182 -212 0
-196 -198 -176 -180 -212 0
-196 -199 -176 -181 -212 0
-196 -200 -176 -182 -212 0
-196 -198 -177 -180 -212 0
-196 -199 -177 -181 -212 0
-196 -200 -177 -182 -212 0
-197 -198 -177 -180 -212 0
-197 -199 -177 -181 -212 0
-197 -200 -177 -182 -212 0
-197 -198 -178 -180 -212 0
-197 -199 -178 -181 -212 0
-197 -200 -178 -182 -212 0
-193 -198 -183 -190 -212 0
-193 -199 -183 -191 -212 0
-193 -200 -183 -192 -212 0
-193 -198 -184 -190 -212 0
-193 -199 -184 -191 -212 0
-193 -200 -184 -192 -212 0
-194 -198 -184 -190 -212 0
-194 -199 -184 -191 -212 0
-194 -200 -184 -192 -212 0
-194 -198 -185 -190 -212 0
-194 -199 -185 -191 -212 0
-194 -200 -185 -192 -212 0
-195 -198 -185 -190 -212 0
-195 -199 -185 -191 -212 0
-195 -200 -185 -192 -212 0
-195 -198 -186 -190 -212 0
-195 -199 -186 -191 -212 0
-195 -200 -186 -192 -212 0
-196 -198 -186 -190 -212 0
-196 -199 -186 -191 -212 0
-196 -200 -186 -192 -212 0
-196 -198 -187 -190 -212 0
-196 -199 -187 -191 -212 0
-196 -200 -187 -192 -212 0
-197 -198 -187 -190 -212 0
-197 -199 -187 -191 -212 0
-197 -200 -187 -192 -212 0
-197 -198 -188 -190 -212 0
-197 -199 -188 -191 -212 0
-197 -200 -188 -192 -212 0
-193 -198 -202 -207 -212 0
-193 -199 -202 -208 -212 0
-193 -200 -202 -209 -212 0
-193 -198 -203 -207 -212 0
-193 -199 -203 -208 -212 0
-193 -200 -203 -209 -212 0
-194 -198 -202 -207 -212 0
-194 -199 -202 -208 -212 0
-194 -200 -202 -209 -212 0
-194 -198 -203 -207 -212 0
-194 -199 -203 -208 -212 0
-194 -200 -203 -209 -212 0
-194 -198 -204 -207 -212 0
-194 -199 -204 -208 -212 0
-194 -200 -204 -209 -212 0
-195 -198 -202 -207 -212 0
-195 -199 -202 -208 -212 0
-195 -200 -202 -209 -212 0
-195 -198 -203 -207 -212 0
-195 -199 -203 -208 -212 0
-195 -200 -203 -209 -212 0
-195 -198 -204 -207 -212 0
-195 -199 -204 -208 -212 0
-195 -200 -204 -209 -212 0
-195 -198 -205 -207 -212 0
-195 -199 -205 -208 -212 0
-195 -200 -205 -209 -212 0
-196 -198 -203 -207 -212 0
-196 -199 -203 -208 -212 0
-196 -200 -203 -209 -212 0
-196 -198 -204 -207 -212 0
-196 -199 -204 -208 -212 0
-196 -200 -204 -209 -212 0
-196 -198 -205 -207 -212 0
-196 -199 -205 -208 -212 0
-196 -200 -205 -209 -212 0
-197 -198 -204 -207 -212 0
-197 -199 -204 -208 -212 0
-197 -200 -204 -209 -212 0
-197 -198 -205 -207 -212 0
-197 -199 -205 -208 -212 0
-197 -200 -205 -209 -212 0
-202 -206 -173 -180 -213 0
-202 -207 -173 -181 -213 0
-202 -208 -173 -182 -213 0
-202 -206 -174 -180 -213 0
-202 -207 -174 -181 -213 0
-202 -208 -174 -182 -213 0
-202 -206 -175 -180 -213 0
-202 -207 -175 -181 -213 0
-202 -208 -175 -182 -213 0
-203 -206 -174 -180 -213 0
-203 -207 -174 -181 -213 0
-203 -208 -174 -182 -213 0
-203 -206 -175 -180 -213 0
-203 -207 -175 -181 -213 0
-203 -208 -175 -182 -213 0
-203 -206 -176 -180 -213 0
-203 -207 -176 -181 -213 0
-203 -208 -176 -182 -213 0
-204 -206 -175 -180 -213 0
-204 -207 -175 -181 -213 0
-204 -208 -175 -182 -213 0
-204 -206 -176 -180 -213 0
-204 -207 -176 -181 -213 0
-204 -208 -176 -182 -213 0
-204 -206 -177 -180 -213 0
-204 -207 -177 -181 -213 0
-204 -208 -177 -182 -213 0
-205 -206 -176 -180 -213 0
-205 -207 -176 -181 -213 0
-205 -208 -176 -182 -213 0
-205 -206 -177 -180 -213 0
-205 -207 -177 -181 -213 0
-205 -208 -177 -182 -213 0
-205 -206 -178 -180 -213 0
-205 -207 -178 -181 -213 0
-205 -208 -178 -182 -213 0
-202 -206 -183 -190 -213 0
-202 -207 -183 -191 -213 0
-202 -208 -183 -192 -213 0
-202 -206 -184 -190 -213 0
-202 -207 -184 -191 -213 0
-202 -208 -184 -192 -213 0
-202 -206 -185 -190 -213 0
-202 -207 -185 -191 -213 0
-202 -208 -185 -192 -213 0
-203 -206 -184 -190 -213 0
-203 -207 -184 -191 -213 0
-203 -208 -184 -192 -213 0
-203 -206 -185 -190 -213 0
-203 -207 -185 -191 -213 0
-203 -208 -185 -192 -213 0
-203 -206 -186 -190 -213 0
-203 -207 -186 -191 -213 0
-203 -208 -186 -192 -213 0
-204 -206 -185 -190 -213 0
-204 -207 -185 -191 -213 0
-204 -208 -185 -192 -213 0
-204 -206 -186 -190 -213 0
-204 -207 -186 -191 -213 0
-204 -208 -186 -192 -213 0
-204 -206 -187 -190 -213 0
-204 -207 -187 -191 -213 0
-204 -208 -187 -192 -213 0
-205 -206 -186 -190 -213 0
-205 -207 -186 -191 -213 0
-205 -208 -186 -192 -213 0
-205 -206 -187 -190 -213 0
-205 -207 -187 -191 -213 0
-205 -208 -187 -192 -213 0
-205 -206 -188 -190 -213 0
-205 -207 -188 -191 -213 0
-205 -208 -188 -192 -213 0
-202 -206 -193 -199 -213 0
-202 -207 -193 -200 -213 0
-202 -208 -193 -201 -213 0
-202 -206 -194 -199 -213 0
-202 -207 -194 -200 -213 0
-202 -208 -194 -201 -213 0
-202 -206 -195 -199 -213 0
-202 -207 -195 -200 -213 0
-202 -208 -195 -201 -213 0
-203 -206 -193 -199 -213 0
-203 -207 -193 -200 -213 0
-203 -208 -193 -201 -213 0
-203 -206 -194 -199 -213 0
-203 -207 -194 -200 -213 0
-203 -208 -194 -201 -213 0
-203 -206 -195 -199 -213 0
-203 -207 -195 -200 -213 0
-203 -208 -195 -201 -213 0
-203 -206 -196 -199 -213 0
-203 -207 -196 -200 -213 0
-203 -208 -196 -201 -213 0
-204 -206 -194 -199 -213 0
-204 -207 -194 -200 -213 0
-204 -208 -194 -201 -213 0
-204 -206 -195 -199 -213 0
-204 -207 -195 -200 -213 0
-204 -208 -195 -201 -213 0
-204 -206 -196 -199 -213 0
-204 -207 -196 -200 -213 0
-204 -208 -196 -201 -213 0
-204 -206 -197 -199 -213 0
-204 -207 -197 -200 -213 0
-204 -208 -197 -201 -213 0
-205 -206 -195 -199 -213 0
-205 -207 -195 -200 -213 0
-205 -208 -195 -201 -213 0
-205 -206 -196 -199 -213 0
-205 -207 -196 -200 -213 0
-205 -208 -196 -201 -213 0
-205 -206 -197 -199 -213 0
-205 -207 -197 -200 -213 0
-205 -208 -197 -201 -213 0
214 215 216 217 218 219 0
-214 -215 0
-214 -216 0
-214 -217 0
-214 -218 0
-214 -219 0
-215 -216 0
-215 -217 0
-215 -218 0
-215 -219 0
-216 -217 0
-216 -218 0
-216 -219 0
-217 -218 0
-217 -219 0
-218 -219 0
220 221 222 223 0
-220 -221 0
-220 -222 0
-220 -223 0
-221 -222 0
-221 -223 0
-222 -223 0
224 225 226 227 228 229 0
-224 -225 0
-224 -226 0
-224 -227 0
-224 -228 0
-224 -229 0
-225 -226 0
-225 -227 0
-225 -228 0
-225 -229 0
-226 -227 0
-226 -228 0
-226 -229 0
-227 -228 0
-227 -229 0
-228 -229 0
230 231 232 233 0
-230 -231 0
-230 -232 0
-230 -233 0
-231 -232 0
-231 -233 0
-232 -233 0
234 235 236 237 238 0
-234 -235 0
-234 -236 0
-234 -237 0
-234 -238 0
-235 -236 0
-235 -237 0
-235 -238 0
-236 -237 0
-236 -238 0
-237 -238 0
239 240 241 242 0
-239 -240 0
-239 -241 0
-239 -242 0
-240 -241 0
-240 -242 0
-241 -242 0
243 244 245 246 0
-243 -244 0
-243 -245 0
-243 -246 0
-244 -245 0
-244 -246 0
-245 -246 0
247 248 249 250 0
-247 -248 0
-247 -249 0
-247 -250 0
-248 -249 0
-248 -250 0
-249 -250 0
-214 -220 -224 -230 0
-214 -221 -224 -231 0
-214 -222 -224 -232 0
-214 -223 -224 -233 0
-215 -220 -225 -230 0
-215 -221 -225 -231 0
-215 -222 -225 -232 0
-215 -223 -225 -233 0
-216 -220 -226 -230 0
-216 -221 -226 -231 0
-216 -222 -226 -232 0
-216 -223 -226 -233 0
-217 -220 -227 -230 0
-217 -221 -227 -231 0
-217 -222 -227 -232 0
-217 -223 -227 -233 0
-218 -220 -228 -230 0
-218 -221 -228 -231 0
-218 -222 -228 -232 0
-218 -223 -228 -233 0
-219 -220 -229 -230 0
-219 -221 -229 -231 0
-219 -222 -229 -232 0
-219 -223 -229 -233 0
-214 -220 -234 -239 0
-214 -221 -234 -240 0
-214 -222 -234 -241 0
-214 -223 -234 -242 0
-215 -220 -234 -239 0
-215 -221 -234 -240 0
-215 -222 -234 -241 0
-215 -223 -234 -242 0
-215 -220 -235 -239 0
-215 -221 -235 -240 0
-215 -222 -235 -241 0
-215 -223 -235 -242 0
-216 -220 -235 -239 0
-216 -221 -235 -240 0
-216 -222 -235 -241 0
-216 -223 -235 -242 0
-216 -220 -236 -239 0
-216 -221 -236 -240 0
-216 -222 -236 -241 0
-216 -223 -236 -242 0
-217 -220 -236 -239 0
-217 -221 -236 -240 0
-217 -222 -236 -241 0
-217 -223 -236 -242 0
-217 -220 -237 -239 0
-217 -221 -237 -240 0
-217 -222 -237 -241 0
-217 -223 -237 -242 0
-218 -220 -237 -239 0
-218 -221 -237 -240 0
-218 -222 -237 -241 0
-218 -223 -237 -242 0
-218 -220 -238 -239 0
-218 -221 -238 -240 0
-218 -222 -238 -241 0
-218 -223 -238 -242 0
-219 -220 -238 -239 0
-219 -221 -238 -240 0
-219 -222 -238 -241 0
-219 -223 -238 -242 0
-214 -220 -243 -247 0
-214 -221 -243 -248 0
-214 -222 -243 -249 0
-214 -223 -243 -250 0
-215 -220 -243 -247 0
-215 -221 -243 -248 0
-215 -222 -243 -249 0
-215 -223 -243 -250 0
-215 -220 -244 -247 0
-215 -221 -244 -248 0
-215 -222 -244 -249 0
-215 -223 -244 -250 0
-216 -220 -243 -247 0
-216 -221 -243 -248 0
-216 -222 -243 -249 0
-216 -223 -243 -250 0
-216 -220 -244 -247 0
-216 -221 -244 -248 0
-216 -222 -244 -249 0
-216 -223 -244 -250 0
-216 -220 -245 -247 0
-216 -221 -245 -248 0
-216 -222 -245 -249 0
-216 -223 -245 -250 0
-217 -220 -244 -247 0
-217 -221 -244 -248 0
-217 -222 -244 -249 0
-217 -223 -244 -250 0
-217 -220 -245 -247 0
-217 -221 -245 -248 0
-217 -222 -245 -249 0
-217 -223 -245 -250 0
-217 -220 -246 -247 0
-217 -221 -246 -248 0
-217 -222 -246 -249 0
-217 -223 -246 -250 0
-218 -220 -245 -247 0
-218 -221 -245 -248 0
-218 -222 -245 -249 0
-218 -223 -245 -250 0
-218 -220 -246 -247 0
-218 -221 -246 -248 0
-218 -222 -246 -249 0
-218 -223 -246 -250 0
-219 -220 -246 -247 0
-219 -221 -246 -248 0
-219 -222 -246 -249 0
-219 -223 -246 -250 0
-224 -230 -234 -239 0
-224 -231 -234 -240 0
-224 -232 -234 -241 0
-224 -233 -234 -242 0
-225 -230 -234 -239 0
-225 -231 -234 -240 0
-225 -232 -234 -241 0
-225 -233 -234 -242 0
-225 -230 -235 -239 0
-225 -231 -235 -240 0
-225 -232 -235 -241 0
-225 -233 -235 -242 0
-226 -230 -235 -239 0
-226 -231 -235 -240 0
-226 -232 -235 -241 0
-226 -233 -235 -242 0
-226 -230 -236 -239 0
-226 -231 -236 -240 0
-226 -232 -236 -241 0
-226 -233 -236 -242 0
-227 -230 -236 -239 0
-227 -231 -236 -240 0
-227 -232 -236 -241 0
-227 -233 -236 -242 0
-227 -230 -237 -239 0
-227 -231 -237 -240 0
-227 -232 -237 -241 0
-227 -233 -237 -242 0
-228 -230 -237 -239 0
-228 -231 -237 -240 0
-228 -232 -237 -241 0
-228 -233 -237 -242 0
-228 -230 -238 -239 0
-228 -231 -238 -240 0
-228 -232 -238 -241 0
-228 -233 -238 -242 0
-229 -230 -238 -239 0
-229 -231 -238 -240 0
-229 -232 -238 -241 0
-229 -233 -238 -242 0
-224 -230 -243 -247 0
-224 -231 -243 -248 0
-224 -232 -243 -249 0
-224 -233 -243 -250 0
-225 -230 -243 -247 0
-225 -231 -243 -248 0
-225 -232 -243 -249 0
-225 -233 -243 -250 0
-225 -230 -244 -247 0
-225 -231 -244 -248 0
-225 -232 -244 -249 0
-225 -233 -244 -250 0
-226 -230 -243 -247 0
-226 -231 -243 -248 0
-226 -232 -243 -249 0
-226 -233 -243 -250 0
-226 -230 -244 -247 0
-226 -231 -244 -248 0
-226 -232 -244 -249 0
-226 -233 -244 -250 0
-226 -230 -245 -247 0
-226 -231 -245 -248 0
-226 -232 -245 -249 0
-226 -233 -245 -250 0
-227 -230 -244 -247 0
-227 -231 -244 -248 0
-227 -232 -244 -249 0
-227 -233 -244 -250 0
-227 -230 -245 -247 0
-227 -231 -245 -248 0
-227 -232 -245 -249 0
-227 -233 -245 -250 0
-227 -230 -246 -247 0
-227 -231 -246 -248 0
-227 -232 -246 -249 0
-227 -233 -246 -250 0
-228 -230 -245 -247 0
-228 -231 -245 -248 0
-228 -232 -245 -249 0
-228 -233 -245 -250 0
-228 -230 -246 -247 0
-228 -231 -246 -248 0
-228 -232 -246 -249 0
-228 -233 -246 -250 0
-229 -230 -246 -247 0
-229 -231 -246 -248 0
-229 -232 -246 -249 0
-229 -233 -246 -250 0
-234 -239 -243 -247 0
-234 -240 -243 -248 0
-234 -241 -243 -249 0
-234 -242 -243 -250 0
-234 -239 -244 -247 0
-234 -240 -244 -248 0
-234 -241 -244 -249 0
-234 -242 -244 -250 0
-235 -239 -243 -247 0
-235 -240 -243 -248 0
-235 -241 -243 -249 0
-235 -242 -243 -250 0
-235 -239 -244 -247 0
-235 -240 -244 -248 0
-235 -241 -244 -249 0
-235 -242 -244 -250 0
-235 -239 -245 -247 0
-235 -240 -245 -248 0
-235 -241 -245 -249 0
-235 -242 -245 -250 0
-236 -239 -243 -247 0
-236 -240 -243 -248 0
-236 -241 -243 -249 0
-236 -242 -243 -250 0
-236 -239 -244 -247 0
-236 -240 -244 -248 0
-236 -241 -244 -249 0
-236 -242 -244 -250 0
-236 -239 -245 -247 0
-236 -240 -245 -248 0
-236 -241 -245 -249 0
-236 -242 -245 -250 0
-236 -239 -246 -247 0
-236 -240 -246 -248 0
-236 -241 -246 -249 0
-236 -242 -246 -250 0
-237 -239 -244 -247 0
-237 -240 -244 -248 0
-237 -241 -244 -249 0
-237 -242 -244 -250 0
-237 -239 -245 -247 0
-237 -240 -245 -248 0
-237 -241 -245 -249 0
-237 -242 -245 -250 0
-237 -239 -246 -247 0
-237 -240 -246 -248 0
-237 -241 -246 -249 0
-237 -242 -246 -250 0
-238 -239 -245 -247 0
-238 -240 -245 -248 0
-238 -241 -245 -249 0
-238 -242 -245 -250 0
-238 -239 -246 -247 0
-238 -240 -246 -248 0
-238 -241 -246 -249 0
-238 -242 -246 -250 0
-214 -220 -224 -231 -251 0
-214 -221 -224 -232 -251 0
-214 -222 -224 -233 -251 0
-215 -220 -225 -231 -251 0
-215 -221 -225 -232 -251 0
-215 -222 -225 -233 -251 0
-216 -220 -226 -231 -251 0
-216 -221 -226 -232 -251 0
-216 -222 -226 -233 -251 0
-217 -220 -227 -231 -251 0
-217 -221 -227 -232 -251 0
-217 -222 -227 -233 -251 0
-218 -220 -228 -231 -251 0
-218 -221 -228 -232 -251 0
-218 -222 -228 -233 -251 0
-219 -220 -229 -231 -251 0
-219 -221 -229 -232 -251 0
-219 -222 -229 -233 -251 0
-214 -220 -234 -240 -251 0
-214 -221 -234 -241 -251 0
-214 -222 -234 -242 -251 0
-215 -220 -234 -240 -251 0
-215 -221 -234 -241 -251 0
-215 -222 -234 -242 -251 0
-215 -220 -235 -240 -251 0
-215 -221 -235 -241 -251 0
-215 -222 -235 -242 -251 0
-216 -220 -235 -240 -251 0
-216 -221 -235 -241 -251 0
-216 -222 -235 -242 -251 0
-216 -220 -236 -240 -251 0
-216 -221 -236 -241 -251 0
-216 -222 -236 -242 -251 0
-217 -220 -236 -240 -251 0
-217 -221 -236 -241 -251 0
-217 -222 -236 -242 -251 0
-217 -220 -237 -240 -251 0
-217 -221 -237 -241 -251 0
-217 -222 -237 -242 -251 0
-218 -220 -237 -240 -251 0
-218 -221 -237 -241 -251 0
-218 -222 -237 -242 -251 0
-218 -220 -238 -240 -251 0
-218 -221 -238 -241 -251 0
-218 -222 -238 -242 -251 0
-219 -220 -238 -240 -251 0
-219 -221 -238 -241 -251 0
-219 -222 -238 -242 -251 0
-214 -220 -243 -248 -251 0
-214 -221 -243 -249 -251 0
-214 -222 -243 -250 -251 0
-215 -220 -243 -248 -251 0
-215 -221 -243 -249 -251 0
-215 -222 -243 -250 -251 0
-215 -220 -244 -248 -251 0
-215 -221 -244 -249 -251 0
-215 -222 -244 -250 -251 0
-216 -220 -243 -248 -251 0
-216 -221 -243 -249 -251 0
-216 -222 -243 -250 -251 0
-216 -220 -244 -248 -251 0
-216 -221 -244 -249 -251 0
-216 -222 -244 -250 -251 0
-216 -220 -245 -248 -251 0
-216 -221 -245 -249 -251 0
-216 -222 -245 -250 -251 0
-217 -220 -244 -248 -251 0
-217 -221 -244 -249 -251 0
-217 -222 -244 -250 -251 0
-217 -220 -245 -248 -251 0
-217 -221 -245 -249 -251 0
-217 -222 -245 -250 -251 0
-217 -220 -246 -248 -251 0
-217 -221 -246 -249 -251 0
-217 -222 -246 -250 -251 0
-218 -220 -245 -248 -251 0
-218 -221 -245 -249 -251 0
-218 -222 -245 -250 -251 0
-218 -220 -246 -248 -251 0
-218 -221 -246 -249 -251 0
-218 -222 -246 -250 -251 0
-219 -220 -246 -248 -251 0
-219 -221 -246 -249 -251 0
-219 -222 -246 -250 -251 0
-224 -230 -214 -221 -252 0
-224 -231 -214 -222 -252 0
-224 -232 -214 -223 -252 0
-225 -230 -215 -221 -252 0
-225 -231 -215 -222 -252 0
-225 -232 -215 -223 -252 0
-226 -230 -216 -221 -252 0
-226 -231 -216 -222 -252 0
-226 -232 -216 -223 -252 0
-227 -230 -217 -221 -252 0
-227 -231 -217 -222 -252 0
-227 -232 -217 -223 -252 0
-228 -230 -218 -221 -252 0
-228 -231 -218 -222 -252 0
-228 -232 -218 -223 -252 0
-229 -230 -219 -221 -252 0
-229 -231 -219 -222 -252 0
-229 -232 -219 -223 -252 0
-224 -230 -234 -240 -252 0
-224 -231 -234 -241 -252 0
-224 -232 -234 -242 -252 0
-225 -230 -234 -240 -252 0
-225 -231 -234 -241 -252 0
-225 -232 -234 -242 -252 0
-225 -230 -235 -240 -252 0
-225 -231 -235 -241 -252 0
-225 -232 -235 -242 -252 0
-226 -230 -235 -240 -252 0
-226 -231 -235 -241 -252 0
-226 -232 -235 -242 -252 0
-226 -230 -236 -240 -252 0
-226 -231 -236 -241 -252 0
-226 -232 -236 -242 -252 0
-227 -230 -236 -240 -252 0
-227 -231 -236 -241 -252 0
-227 -232 -236 -242 -252 0
-227 -230 -237 -240 -252 0
-227 -231 -237 -241 -252 0
-227 -232 -237 -242 -252 0
-228 -230 -237 -240 -252 0
-228 -231 -237 -241 -252 0
-228 -232 -237 -242 -252 0
-228 -230 -238 -240 -252 0
-228 -231 -238 -241 -252 0
-228 -232 -238 -242 -252 0
-229 -230 -238 -240 -252 0
-229 -231 -238 -241 -252 0
-229 -232 -238 -242 -252 0
-224 -230 -243 -248 -252 0
-224 -231 -243 -249 -252 0
-224 -232 -243 -250 -252 0
-225 -230 -243 -248 -252 0
-225 -231 -243 -249 -252 0
-225 -232 -243 -250 -252 0
-225 -230 -244 -248 -252 0
-225 -231 -244 -249 -252 0
-225 -232 -244 -250 -252 0
-226 -230 -243 -248 -252 0
-226 -231 -243 -249 -252 0
-226 -232 -243 -250 -252 0
-226 -230 -244 -248 -252 0
-226 -231 -244 -249 -252 0
-226 -232 -244 -250 -252 0
-226 -230 -245 -248 -252 0
-226 -231 -245 -249 -252 0
-226 -232 -245 -250 -252 0
-227 -230 -244 -248 -252 0
-227 -231 -244 -249 -252 0
-227 -232 -244 -250 -252 0
-227 -230 -245 -248 -252 0
-227 -231 -245 -249 -252 0
-227 -232 -245 -250 -252 0
-227 -230 -246 -248 -252 0
-227 -231 -246 -249 -252 0
-227 -232 -246 -250 -252 0
-228 -230 -245 -248 -252 0
-228 -231 -245 -249 -252 0
-228 -232 -245 -250 -252 0
-228 -230 -246 -248 -252 0
-228 -231 -246 -249 -252 0
-228 -232 -246 -250 -252 0
-229 -230 -246 -248 -252 0
-229 -231 -246 -249 -252 0
-229 -232 -246 -250 -252 0
-234 -239 -214 -221 -253 0
-234 -240 -214 -222 -253 0
-234 -241 -214 -223 -253 0
-234 -239 -215 -221 -253 0
-234 -240 -215 -222 -253 0
-234 -241 -215 -223 -253 0
-235 -239 -215 -221 -253 0
-235 -240 -215 -222 -253 0
-235 -241 -215 -223 -253 0
-235 -239 -216 -221 -253 0
-235 -240 -216 -222 -253 0
-235 -241 -216 -223 -253 0
-236 -239 -216 -221 -253 0
-236 -240 -216 -222 -253 0
-236 -241 -216 -223 -253 0
-236 -239 -217 -221 -253 0
-236 -240 -217 -222 -253 0
-236 -241 -217 -223 -253 0
-237 -239 -217 -221 -253 0
-237 -240 -217 -222 -253 0
-237 -241 -217 -223 -253 0
-237 -239 -218 -221 -253 0
-237 -240 -218 -222 -253 0
-237 -241 -218 -223 -253 0
-238 -239 -218 -221 -253 0
-238 -240 -218 -222 -253 0
-238 -241 -218 -223 -253 0
-238 -239 -219 -221 -253 0
-238 -240 -219 -222 -253 0
-238 -241 -219 -223 -253 0
-234 -239 -224 -231 -253 0
-234 -240 -224 -232 -253 0
-234 -241 -224 -233 -253 0
-234 -239 -225 -231 -253 0
-234 -240 -225 -232 -253 0
-234 -241 -225 -233 -253 0
-235 -239 -225 -231 -253 0
-235 -240 -225 -232 -253 0
-235 -241 -225 -233 -253 0
-235 -239 -226 -231 -253 0
-235 -240 -226 -232 -253 0
-235 -241 -226 -233 -253 0
-236 -239 -226 -231 -253 0
-236 -240 -226 -232 -253 0
-236 -241 -226 -233 -253 0
-236 -239 -227 -231 -253 0
-236 -240 -227 -232 -253 0
-236 -241 -227 -233 -253 0
-237 -239 -227 -231 -253 0
-237 -240 -227 -232 -253 0
-237 -241 -227 -233 -253 0
-237 -239 -228 -231 -253 0
-237 -240 -228 -232 -253 0
-237 -241 -228 -233 -253 0
-238 -239 -228 -231 -253 0
-238 -240 -228 -232 -253 0
-238 -241 -228 -233 -253 0
-238 -239 -229 -231 -253 0
-238 -240 -229 -232 -253 0
-238 -241 -229 -233 -253 0
-234 -239 -243 -248 -253 0
-234 -240 -243 -249 -253 0
-234 -241 -243 -250 -253 0
-234 -239 -244 -248 -253 0
-234 -240 -244 -249 -253 0
-234 -241 -244 -250 -253 0
-235 -239 -243 -248 -253 0
-235 -240 -243 -249 -253 0
-235 -241 -243 -250 -253 0
-235 -239 -244 -248 -253 0
-235 -240 -244 -249 -253 0
-235 -241 -244 -250 -253 0
-235 -239 -245 -248 -253 0
-235 -240 -245 -249 -253 0
-235 -241 -245 -250 -253 0
-236 -239 -243 -248 -253 0
-236 -240 -243 -249 -253 0
-236 -241 -243 -250 -253 0
-236 -239 -244 -248 -253 0
-236 -240 -244 -249 -253 0
-236 -241 -244 -250 -253 0
-236 -239 -245 -248 -253 0
-236 -240 -245 -249 -253 0
-236 -241 -245 -250 -253 0
-236 -239 -246 -248 -253 0
-236 -240 -246 -249 -253 0
-236 -241 -246 -250 -253 0
-237 -239 -244 -248 -253 0
-237 -240 -244 -249 -253 0
-237 -241 -244 -250 -253 0
-237 -239 -245 -248 -253 0
-237 -240 -245 -249 -253 0
-237 -241 -245 -250 -253 0
-237 -239 -246 -248 -253 0
-237 -240 -246 -249 -253 0
-237 -241 -246 -250 -253 0
-238 -239 -245 -248 -253 0
-238 -240 -245 -249 -253 0
-238 -241 -245 -250 -253 0
-238 -239 -246 -248 -253 0
-238 -240 -246 -249 -253 0
-238 -241 -246 -250 -253 0
-243 -247 -214 -221 -254 0
-243 -248 -214 -222 -254 0
-243 -249 -214 -223 -254 0
-243 -247 -215 -221 -254 0
-243 -248 -215 -222 -254 0
-243 -249 -215 -223 -254 0
-243 -247 -216 -221 -254 0
-243 -248 -216 -222 -254 0
-243 -249 -216 -223 -254 0
-244 -247 -215 -221 -254 0
-244 -248 -215 -222 -254 0
-244 -249 -215 -223 -254 0
-244 -247 -216 -221 -254 0
-244 -248 -216 -222 -254 0
-244 -249 -216 -223 -254 0
-244 -247 -217 -221 -254 0
-244 -248 -217 -222 -254 0
-244 -249 -217 -223 -254 0
-245 -247 -216 -221 -254 0
-245 -248 -216 -222 -254 0
-245 -249 -216 -223 -254 0
-245 -247 -217 -221 -254 0
-245 -248 -217 -222 -254 0
-245 -249 -217 -223 -254 0
-245 -247 -218 -221 -254 0
-245 -248 -218 -222 -254 0
-245 -249 -218 -223 -254 0
-246 -247 -217 -221 -254 0
-246 -248 -217 -222 -254 0
-246 -249 -217 -223 -254 0
-246 -247 -218 -221 -254 0
-246 -248 -218 -222 -254 0
-246 -249 -218 -223 -254 0
-246 -247 -219 -221 -254 0
-246 -248 -219 -222 -254 0
-246 -249 -219 -223 -254 0
-243 -247 -224 -231 -254 0
-243 -248 -224 -232 -254 0
-243 -249 -224 -233 -254 0
-243 -247 -225 -231 -254 0
-243 -248 -225 -232 -254 0
-243 -249 -225 -233 -254 0
-243 -247 -226 -231 -254 0
-243 -248 -226 -232 -254 0
-243 -249 -226 -233 -254 0
-244 -247 -225 -231 -254 0
-244 -248 -225 -232 -254 0
-244 -249 -225 -233 -254 0
-244 -247 -226 -231 -254 0
-244 -248 -226 -232 -254 0
-244 -249 -226 -233 -254 0
-244 -247 -227 -231 -254 0
-244 -248 -227 -232 -254 0
-244 -249 -227 -233 -254 0
-245 -247 -226 -231 -254 0
-245 -248 -226 -232 -254 0
-245 -249 -226 -233 -254 0
-245 -247 -227 -231 -254 0
-245 -248 -227 -232 -254 0
-245 -249 -227 -233 -254 0
-245 -247 -228 -231 -254 0
-245 -248 -228 -232 -254 0
-245 -249 -228 -233 -254 0
-246 -247 -227 -231 -254 0
-246 -248 -227 -232 -254 0
-246 -249 -227 -233 -254 0
-246 -247 -228 -231 -254 0
-246 -248 -228 -232 -254 0
-246 -249 -228 -233 -254 0
-246 -247 -229 -231 -254 0
-246 -248 -229 -232 -254 0
-246 -249 -229 -233 -254 0
-243 -247 -234 -240 -254 0
-243 -248 -234 -241 -254 0
-243 -249 -234 -242 -254 0
-243 -247 -235 -240 -254 0
-243 -248 -235 -241 -254 0
-243 -249 -235 -242 -254 0
-243 -247 -236 -240 -254 0
-243 -248 -236 -241 -254 0
-243 -249 -236 -242 -254 0
-244 -247 -234 -240 -254 0
-244 -248 -234 -241 -254 0
-244 -249 -234 -242 -254 0
-244 -247 -235 -240 -254 0
-244 -248 -235 -241 -254 0
-244 -249 -235 -242 -254 0
-244 -247 -236 -240 -254 0
-244 -248 -236 -241 -254 0
-244 -249 -236 -242 -254 0
-244 -247 -237 -240 -254 0
-244 -248 -237 -241 -254 0
-244 -249 -237 -242 -254 0
-245 -247 -235 -240 -254 0
-245 -248 -235 -241 -254 0
-245 -249 -235 -242 -254 0
-245 -247 -236 -240 -254 0
-245 -248 -236 -241 -254 0
-245 -249 -236 -242 -254 0
-245 -247 -237 -240 -254 0
-245 -248 -237 -241 -254 0
-245 -249 -237 -242 -254 0
-245 -247 -238 -240 -254 0
-245 -248 -238 -241 -254 0
-245 -249 -238 -242 -254 0
-246 -247 -236 -240 -254 0
-246 -248 -236 -241 -254 0
-246 -249 -236 -242 -254 0
-246 -247 -237 -240 -254 0
-246 -248 -237 -241 -254 0
-246 -249 -237 -242 -254 0
-246 -247 -238 -240 -254 0
-246 -248 -238 -241 -254 0
-246 -249 -238 -242 -254 0
255 256 257 258 259 260 0
-255 -256 0
-255 -257 0
-255 -258 0
-255 -259 0
-255 -260 0
-256 -257 0
-256 -258 0
-256 -259 0
-256 -260 0
-257 -258 0
-257 -259 0
-257 -260 0
-258 -259 0
-258 -260 0
-259 -260 0
261 262 263 264 0
-261 -262 0
-261 -263 0
-261 -264 0
-262 -263 0
-262 -264 0
-263 -264 0
265 266 267 268 269 270 0
-265 -266 0
-265 -267 0
-265 -268 0
-265 -269 0
-265 -270 0
-266 -267 0
-266 -268 0
-266 -269 0
-266 -270 0
-267 -268 0
-267 -269 0
-267 -270 0
-268 -269 0
-268 -270 0
-269 -270 0
271 272 273 274 0
-271 -272 0
-271 -273 0
-271 -274 0
-272 -273 0
-272 -274 0
-273 -274 0
275 276 277 278 279 0
-275 -276 0
-275 -277 0
-275 -278 0
-275 -279 0
-276 -277 0
-276 -278 0
-276 -279 0
-277 -278 0
-277 -279 0
-278 -279 0
280 281 282 283 0
-280 -281 0
-280 -282 0
-280 -283 0
-281 -282 0
-281 -283 0
-282 -283 0
284 285 286 287 0
-284 -285 0
-284 -286 0
-284 -287 0
-285 -286 0
-285 -287 0
-286 -287 0
288 289 290 291 0
-288 -289 0
-288 -290 0
-288 -291 0
-289 -290 0
-289 -291 0
-290 -291 0
-255 -261 -265 -271 0
-255 -262 -265 -272 0
-255 -263 -265 -273 0
-255 -264 -265 -274 0
-256 -261 -266 -271 0
-256 -262 -266 -272 0
-256 -263 -266 -273 0
-256 -264 -266 -274 0
-257 -261 -267 -271 0
-257 -262 -267 -272 0
-257 -263 -267 -273 0
-257 -264 -267 -274 0
-258 -261 -268 -271 0
-258 -262 -268 -272 0
-258 -263 -268 -273 0
-258 -264 -268 -274 0
-259 -261 -269 -271 0
-259 -262 -269 -272 0
-259 -263 -269 -273 0
-259 -264 -269 -274 0
-260 -261 -270 -271 0
-260 -262 -270 -272 0
-260 -263 -270 -273 0
-260 -264 -270 -274 0
-255 -261 -275 -280 0
-255 -262 -275 -281 0
-255 -263 -275 -282 0
-255 -264 -275 -283 0
-256 -261 -275 -280 0
-256 -262 -275 -281 0
-256 -263 -275 -282 0
-256 -264 -275 -283 0
-256 -261 -276 -280 0
-256 -262 -276 -281 0
-256 -263 -276 -282 0
-256 -264 -276 -283 0
-257 -261 -276 -280 0
-257 -262 -276 -281 0
-257 -263 -276 -282 0
-257 -264 -276 -283 0
-257 -261 -277 -280 0
-257 -262 -277 -281 0
-257 -263 -277 -282 0
-257 -264 -277 -283 0
-258 -261 -277 -280 0
-258 -262 -277 -281 0
-258 -263 -277 -282 0
-258 -264 -277 -283 0
-258 -261 -278 -280 0
-258 -262 -278 -281 0
-258 -263 -278 -282 0
-258 -264 -278 -283 0
-259 -261 -278 -280 0
-259 -262 -278 -281 0
-259 -263 -278 -282 0
-259 -264 -278 -283 0
-259 -261 -279 -280 0
-259 -262 -279 -281 0
-259 -263 -279 -282 0
-259 -264 -279 -283 0
-260 -261 -279 -280 0
-260 -262 -279 -281 0
-260 -263 -279 -282 0
-260 -264 -279 -283 0
-255 -261 -284 -288 0
-255 -262 -284 -289 0
-255 -263 -284 -290 0
-255 -264 -284 -291 0
-256 -261 -284 -288 0
-256 -262 -284 -289 0
-256 -263 -284 -290 0
-256 -264 -284 -291 0
-256 -261 -285 -288 0
-256 -262 -285 -289 0
-256 -263 -285 -290 0
-256 -264 -285 -291 0
-257 -261 -284 -288 0
-257 -262 -284 -289 0
-257 -263 -284 -290 0
-257 -264 -284 -291 0
-257 -261 -285 -288 0
-257 -262 -285 -289 0
-257 -263 -285 -290 0
-257 -264 -285 -291 0
-257 -261 -286 -288 0
-257 -262 -286 -289 0
-257 -263 -286 -290 0
-257 -264 -286 -291 0
-258 -261 -285 -288 0
-258 -262 -285 -289 0
-258 -263 -285 -290 0
-258 -264 -285 -291 0
-258 -261 -286 -288 0
-258 -262 -286 -289 0
-258 -263 -286 -290 0
-258 -264 -286 -291 0
-258 -261 -287 -288 0
-258 -262 -287 -289 0
-258 -263 -287 -290 0
-258 -264 -287 -291 0
-259 -261 -286 -288 0
-259 -262 -286 -289 0
-259 -263 -286 -290 0
-259 -264 -286 -291 0
-259 -261 -287 -288 0
-259 -262 -287 -289 0
-259 -263 -287 -290 0
-259 -264 -287 -291 0
-260 -261 -287 -288 0
-260 -262 -287 -289 0
-260 -263 -287 -290 0
-260 -264 -287 -291 0
-265 -271 -275 -280 0
-265 -272 -275 -281 0
-265 -273 -275 -282 0
-265 -274 -275 -283 0
-266 -271 -275 -280 0
-266 -272 -275 -281 0
-266 -273 -275 -282 0
-266 -274 -275 -283 0
-266 -271 -276 -280 0
-266 -272 -276 -281 0
-266 -273 -276 -282 0
-266 -274 -276 -283 0
-267 -271 -276 -280 0
-267 -272 -276 -281 0
-267 -273 -276 -282 0
-267 -274 -276 -283 0
-267 -271 -277 -280 0
-267 -272 -277 -281 0
-267 -273 -277 -282 0
-267 -274 -277 -283 0
-268 -271 -277 -280 0
-268 -272 -277 -281 0
-268 -273 -277 -282 0
-268 -274 -277 -283 0
-268 -271 -278 -280 0
-268 -272 -278 -281 0
-268 -273 -278 -282 0
-268 -274 -278 -283 0
-269 -271 -278 -280 0
-269 -272 -278 -281 0
-269 -273 -278 -282 0
-269 -274 -278 -283 0
-269 -271 -279 -280 0
-269 -272 -279 -281 0
-269 -273 -279 -282 0
-269 -274 -279 -283 0
-270 -271 -279 -280 0
-270 -272 -279 -281 0
-270 -273 -279 -282 0
-270 -274 -279 -283 0
-265 -271 -284 -288 0
-265 -272 -284 -289 0
-265 -273 -284 -290 0
-265 -274 -284 -291 0
-266 -271 -284 -288 0
-266 -272 -284 -289 0
-266 -273 -284 -290 0
-266 -274 -284 -291 0
-266 -271 -285 -288 0
-266 -272 -285 -289 0
-266 -273 -285 -290 0
-266 -274 -285 -291 0
-267 -271 -284 -288 0
-267 -272 -284 -289 0
-267 -273 -284 -290 0
-267 -274 -284 -291 0
-267 -271 -285 -288 0
-267 -272 -285 -289 0
-267 -273 -285 -290 0
-267 -274 -285 -291 0
-267 -271 -286 -288 0
-267 -272 -286 -289 0
-267 -273 -286 -290 0
-267 -274 -286 -291 0
-268 -271 -285 -288 0
-268 -272 -285 -289 0
-268 -273 -285 -290 0
-268 -274 -285 -291 0
-268 -271 -286 -288 0
-268 -272 -286 -289 0
-268 -273 -286 -290 0
-268 -274 -286 -291 0
-268 -271 -287 -288 0
-268 -272 -287 -289 0
-268 -273 -287 -290 0
-268 -274 -287 -291 0
-269 -271 -286 -288 0
-269 -272 -286 -289 0
-269 -273 -286 -290 0
-269 -274 -286 -291 0
-269 -271 -287 -288 0
-269 -272 -287 -289 0
-269 -273 -287 -290 0
-269 -274 -287 -291 0
-270 -271 -287 -288 0
-270 -272 -287 -289 0
-270 -273 -287 -290 0
-270 -274 -287 -291 0
-275 -280 -284 -288 0
-275 -281 -284 -289 0
-275 -282 -284 -290 0
-275 -283 -284 -291 0
-275 -280 -285 -288 0
-275 -281 -285 -289 0
-275 -282 -285 -290 0
-275 -283 -285 -291 0
-276 -280 -284 -288 0
-276 -281 -284 -289 0
-276 -282 -284 -290 0
-276 -283 -284 -291 0
-276 -280 -285 -288 0
-276 -281 -285 -289 0
-276 -282 -285 -290 0
-276 -283 -285 -291 0
-276 -280 -286 -288 0
-276 -281 -286 -289 0
-276 -282 -286 -290 0
-276 -283 -286 -291 0
-277 -280 -284 -288 0
-277 -281 -284 -289 0
-277 -282 -284 -290 0
-277 -283 -284 -291 0
-277 -280 -285 -288 0
-277 -281 -285 -289 0
-277 -282 -285 -290 0
-277 -283 -285 -291 0
-277 -280 -286 -288 0
-277 -281 -286 -289 0
-277 -282 -286 -290 0
-277 -283 -286 -291 0
-277 -280 -287 -288 0
-277 -281 -287 -289 0
-277 -282 -287 -290 0
-277 -283 -287 -291 0
-278 -280 -285 -288 0
-278 -281 -285 -289 0
-278 -282 -285 -290 0
-278 -283 -285 -291 0
-278 -280 -286 -288 0
-278 -281 -286 -289 0
-278 -282 -286 -290 0
-278 -283 -286 -291 0
-278 -280 -287 -288 0
-278 -281 -287 -289 0
-278 -282 -287 -290 0
-278 -283 -287 -291 0
-279 -280 -286 -288 0
-279 -281 -286 -289 0
-279 -282 -286 -290 0
-279 -283 -286 -291 0
-279 -280 -287 -288 0
-279 -281 -287 -289 0
-279 -282 -287 -290 0
-279 -283 -287 -291 0
-255 -261 -265 -272 -292 0
-255 -262 -265 -273 -292 0
-255 -263 -265 -274 -292 0
-256 -261 -266 -272 -292 0
-256 -262 -266 -273 -292 0
-256 -263 -266 -274 -292 0
-257 -261 -267 -272 -292 0
-257 -262 -267 -273 -292 0
-257 -263 -267 -274 -292 0
-258 -261 -268 -272 -292 0
-258 -262 -268 -273 -292 0
-258 -263 -268 -274 -292 0
-259 -261 -269 -272 -292 0
-259 -262 -269 -273 -292 0
-259 -263 -269 -274 -292 0
-260 -261 -270 -272 -292 0
-260 -262 -270 -273 -292 0
-260 -263 -270 -274 -292 0
-255 -261 -275 -281 -292 0
-255 -262 -275 -282 -292 0
-255 -263 -275 -283 -292 0
-256 -261 -275 -281 -292 0
-256 -262 -275 -282 -292 0
-256 -263 -275 -283 -292 0
-256 -261 -276 -281 -292 0
-256 -262 -276 -282 -292 0
-256 -263 -276 -283 -292 0
-257 -261 -276 -281 -292 0
-257 -262 -276 -282 -292 0
-257 -263 -276 -283 -292 0
-257 -261 -277 -281 -292 0
-257 -262 -277 -282 -292 0
-257 -263 -277 -283 -292 0
-258 -261 -277 -281 -292 0
-258 -262 -277 -282 -292 0
-258 -263 -277 -283 -292 0
-258 -261 -278 -281 -292 0
-258 -262 -278 -282 -292 0
-258 -263 -278 -283 -292 0
-259 -261 -278 -281 -292 0
-259 -262 -278 -282 -292 0
-259 -263 -278 -283 -292 0
-259 -261 -279 -281 -292 0
-259 -262 -279 -282 -292 0
-259 -263 -279 -283 -292 0
-260 -261 -279 -281 -292 0
-260 -262 -279 -282 -292 0
-260 -263 -279 -283 -292 0
-255 -261 -284 -289 -292 0
-255 -262 -284 -290 -292 0
-255 -263 -284 -291 -292 0
-256 -261 -284 -289 -292 0
-256 -262 -284 -290 -292 0
-256 -263 -284 -291 -292 0
-256 -261 -285 -289 -292 0
-256 -262 -285 -290 -292 0
-256 -263 -285 -291 -292 0
-257 -261 -284 -289 -292 0
-257 -262 -284 -290 -292 0
-257 -263 -284 -291 -292 0
-257 -261 -285 -289 -292 0
-257 -262 -285 -290 -292 0
-257 -263 -285 -291 -292 0
-257 -261 -286 -289 -292 0
-257 -262 -286 -290 -292 0
-257 -263 -286 -291 -292 0
-258 -261 -285 -289 -292 0
-258 -262 -285 -290 -292 0
-258 -263 -285 -291 -292 0
-258 -261 -286 -289 -292 0
-258 -262 -286 -290 -292 0
-258 -263 -286 -291 -292 0
-258 -261 -287 -289 -292 0
-258 -262 -287 -290 -292 0
-258 -263 -287 -291 -292 0
-259 -261 -286 -289 -292 0
-259 -262 -286 -290 -292 0
-259 -263 -286 -291 -292 0
-259 -261 -287 -289 -292 0
-259 -262 -287 -290 -292 0
-259 -263 -287 -291 -292 0
-260 -261 -287 -289 -292 0
-260 -262 -287 -290 -292 0
-260 -263 -287 -291 -292 0
-265 -271 -255 -262 -293 0
-265 -272 -255 -263 -293 0
-265 -273 -255 -264 -293 0
-266 -271 -256 -262 -293 0
-266 -272 -256 -263 -293 0
-266 -273 -256 -264 -293 0
-267 -271 -257 -262 -293 0
-267 -272 -257 -263 -293 0
-267 -273 -257 -264 -293 0
-268 -271 -258 -262 -293 0
-268 -272 -258 -263 -293 0
-268 -273 -258 -264 -293 0
-269 -271 -259 -262 -293 0
-269 -272 -259 -263 -293 0
-269 -273 -259 -264 -293 0
-270 -271 -260 -262 -293 0
-270 -272 -260 -263 -293 0
-270 -273 -260 -264 -293 0
-265 -271 -275 -281 -293 0
-265 -272 -275 -282 -293 0
-265 -273 -275 -283 -293 0
-266 -271 -275 -281 -293 0
-266 -272 -275 -282 -293 0
-266 -273 -275 -283 -293 0
-266 -271 -276 -281 -293 0
-266 -272 -276 -282 -293 0
-266 -273 -276 -283 -293 0
-267 -271 -276 -281 -293 0
-267 -272 -276 -282 -293 0
-267 -273 -276 -283 -293 0
-267 -271 -277 -281 -293 0
-267 -272 -277 -282 -293 0
-267 -273 -277 -283 -293 0
-268 -271 -277 -281 -293 0
-268 -272 -277 -282 -293 0
-268 -273 -277 -283 -293 0
-268 -271 -278 -281 -293 0
-268 -272 -278 -282 -293 0
-268 -273 -278 -283 -293 0
-269 -271 -278 -281 -293 0
-269 -272 -278 -282 -293 0
-269 -273 -278 -283 -293 0
-269 -271 -279 -281 -293 0
-269 -272 -279 -282 -293 0
-269 -273 -279 -283 -293 0
-270 -271 -279 -281 -293 0
-270 -272 -279 -282 -293 0
-270 -273 -279 -283 -293 0
-265 -271 -284 -289 -293 0
-265 -272 -284 -290 -293 0
-265 -273 -284 -291 -293 0
-266 -271 -284 -289 -293 0
-266 -272 -284 -290 -293 0
-266 -273 -284 -291 -293 0
-266 -271 -285 -289 -293 0
-266 -272 -285 -290 -293 0
-266 -273 -285 -291 -293 0
-267 -271 -284 -289 -293 0
-267 -272 -284 -290 -293 0
-267 -273 -284 -291 -293 0
-267 -271 -285 -289 -293 0
-267 -272 -285 -290 -293 0
-267 -273 -285 -291 -293 0
-267 -271 -286 -289 -293 0
-267 -272 -286 -290 -293 0
-267 -273 -286 -291 -293 0
-268 -271 -285 -289 -293 0
-268 -272 -285 -290 -293 0
-268 -273 -285 -291 -293 0
-268 -271 -286 -289 -293 0
-268 -272 -286 -290 -293 0
-268 -273 -286 -291 -293 0
-268 -271 -287 -289 -293 0
-268 -272 -287 -290 -293 0
-268 -273 -287 -291 -293 0
-269 -271 -286 -289 -293 0
-269 -272 -286 -290 -293 0
-269 -273 -286 -291 -293 0
-269 -271 -287 -289 -293 0
-269 -272 -287 -290 -293 0
-269 -273 -287 -291 -293 0
-270 -271 -287 -289 -293 0
-270 -272 -287 -290 -293 0
-270 -273 -287 -291 -293 0
-275 -280 -255 -262 -294 0
-275 -281 -255 -263 -294 0
-275 -282 -255 -264 -294 0
-275 -280 -256 -262 -294 0
-275 -281 -256 -263 -294 0
-275 -282 -256 -264 -294 0
-276 -280 -256 -262 -294 0
-276 -281 -256 -263 -294 0
-276 -282 -256 -264 -294 0
-276 -280 -257 -262 -294 0
-276 -281 -257 -263 -294 0
-276 -282 -257 -264 -294 0
-277 -280 -257 -262 -294 0
-277 -281 -257 -263 -294 0
-277 -282 -257 -264 -294 0
-277 -280 -258 -262 -294 0
-277 -281 -258 -263 -294 0
-277 -282 -258 -264 -294 0
-278 -280 -258 -262 -294 0
-278 -281 -258 -263 -294 0
-278 -282 -258 -264 -294 0
-278 -280 -259 -262 -294 0
-278 -281 -259 -263 -294 0
-278 -282 -259 -264 -294 0
-279 -280 -259 -262 -294 0
-279 -281 -259 -263 -294 0
-279 -282 -259 -264 -294 0
-279 -280 -260 -262 -294 0
-279 -281 -260 -263 -294 0
-279 -282 -260 -264 -294 0
-275 -280 -265 -272 -294 0
-275 -281 -265 -273 -294 0
-275 -282 -265 -274 -294 0
-275 -280 -266 -272 -294 0
-275 -281 -266 -273 -294 0
-275 -282 -266 -274 -294 0
-276 -280 -266 -272 -294 0
-276 -281 -266 -273 -294 0
-276 -282 -266 -274 -294 0
-276 -280 -267 -272 -294 0
-276 -281 -267 -273 -294 0
-276 -282 -267 -274 -294 0
-277 -280 -267 -272 -294 0
-277 -281 -267 -273 -294 0
-277 -282 -267 -274 -294 0
-277 -280 -268 -272 -294 0
-277 -281 -268 -273 -294 0
-277 -282 -268 -274 -294 0
-278 -280 -268 -272 -294 0
-278 -281 -268 -273 -294 0
-278 -282 -268 -274 -294 0
-278 -280 -269 -272 -294 0
-278 -281 -269 -273 -294 0
-278 -282 -269 -274 -294 0
-279 -280 -269 -272 -294 0
-279 -281 -269 -273 -294 0
-279 -282 -269 -274 -294 0
-279 -280 -270 -272 -294 0
-279 -281 -270 -273 -294 0
-279 -282 -270 -274 -294 0
-275 -280 -284 -289 -294 0
-275 -281 -284 -290 -294 0
-275 -282 -284 -291 -294 0
-275 -280 -285 -289 -294 0
-275 -281 -285 -290 -294 0
-275 -282 -285 -291 -294 0
-276 -280 -284 -289 -294 0
-276 -281 -284 -290 -294 0
-276 -282 -284 -291 -294 0
-276 -280 -285 -289 -294 0
-276 -281 -285 -290 -294 0
-276 -282 -285 -291 -294 0
-276 -280 -286 -289 -294 0
-276 -281 -286 -290 -294 0
-276 -282 -286 -291 -294 0
-277 -280 -284 -289 -294 0
-277 -281 -284 -290 -294 0
-277 -282 -284 -291 -294 0
-277 -280 -285 -289 -294 0
-277 -281 -285 -290 -294 0
-277 -282 -285 -291 -294 0
-277 -280 -286 -289 -294 0
-277 -281 -286 -290 -294 0
-277 -282 -286 -291 -294 0
-277 -280 -287 -289 -294 0
-277 -281 -287 -290 -294 0
-277 -282 -287 -291 -294 0
-278 -280 -285 -289 -294 0
-278 -281 -285 -290 -294 0
-278 -282 -285 -291 -294 0
-278 -280 -286 -289 -294 0
-278 -281 -286 -290 -294 0
-278 -282 -286 -291 -294 0
-278 -280 -287 -289 -294 0
-278 -281 -287 -290 -294 0
-278 -282 -287 -291 -294 0
-279 -280 -286 -289 -294 0
-279 -281 -286 -290 -294 0
-279 -282 -286 -291 -294 0
-279 -280 -287 -289 -294 0
-279 -281 -287 -290 -294 0
-279 -282 -287 -291 -294 0
-284 -288 -255 -262 -295 0
-284 -289 -255 -263 -295 0
-284 -290 -255 -264 -295 0
-284 -288 -256 -262 -295 0
-284 -289 -256 -263 -295 0
-284 -290 -256 -264 -295 0
-284 -288 -257 -262 -295 0
-284 -289 -257 -263 -295 0
-284 -290 -257 -264 -295 0
-285 -288 -256 -262 -295 0
-285 -289 -256 -263 -295 0
-285 -290 -256 -264 -295 0
-285 -288 -257 -262 -295 0
-285 -289 -257 -263 -295 0
-285 -290 -257 -264 -295 0
-285 -288 -258 -262 -295 0
-285 -289 -258 -263 -295 0
-285 -290 -258 -264 -295 0
-286 -288 -257 -262 -295 0
-286 -289 -257 -263 -295 0
-286 -290 -257 -264 -295 0
-286 -288 -258 -262 -295 0
-286 -289 -258 -263 -295 0
-286 -290 -258 -264 -295 0
-286 -288 -259 -262 -295 0
-286 -289 -259 -263 -295 0
-286 -290 -259 -264 -295 0
-287 -288 -258 -262 -295 0
-287 -289 -258 -263 -295 0
-287 -290 -258 -264 -295 0
-287 -288 -259 -262 -295 0
-287 -289 -259 -263 -295 0
-287 -290 -259 -264 -295 0
-287 -288 -260 -262 -295 0
-287 -289 -260 -263 -295 0
-287 -290 -260 -264 -295 0
-284 -288 -265 -272 -295 0
-284 -289 -265 -273 -295 0
-284 -290 -265 -274 -295 0
-284 -288 -266 -272 -295 0
-284 -289 -266 -273 -295 0
-284 -290 -266 -274 -295 0
-284 -288 -267 -272 -295 0
-284 -289 -267 -273 -295 0
-284 -290 -267 -274 -295 0
-285 -288 -266 -272 -295 0
-285 -289 -266 -273 -295 0
-285 -290 -266 -274 -295 0
-285 -288 -267 -272 -295 0
-285 -289 -267 -273 -295 0
-285 -290 -267 -274 -295 0
-285 -288 -268 -272 -295 0
-285 -289 -268 -273 -295 0
-285 -290 -268 -274 -295 0
-286 -288 -267 -272 -295 0
-286 -289 -267 -273 -295 0
-286 -290 -267 -274 -295 0
-286 -288 -268 -272 -295 0
-286 -289 -268 -273 -295 0
-286 -290 -268 -274 -295 0
-286 -288 -269 -272 -295 0
-286 -289 -269 -273 -295 0
-286 -290 -269 -274 -295 0
-287 -288 -268 -272 -295 0
-287 -289 -268 -273 -295 0
-287 -290 -268 -274 -295 0
-287 -288 -269 -272 -295 0
-287 -289 -269 -273 -295 0
-287 -290 -269 -274 -295 0
-287 -288 -270 -272 -295 0
-287 -289 -270 -273 -295 0
-287 -290 -270 -274 -295 0
-284 -288 -275 -281 -295 0
-284 -289 -275 -282 -295 0
-284 -290 -275 -283 -295 0
-284 -288 -276 -281 -295 0
-284 -289 -276 -282 -295 0
-284 -290 -276 -283 -295 0
-284 -288 -277 -281 -295 0
-284 -289 -277 -282 -295 0
-284 -290 -277 -283 -295 0
-285 -288 -275 -281 -295 0
-285 -289 -275 -282 -295 0
-285 -290 -275 -283 -295 0
-285 -288 -276 -281 -295 0
-285 -289 -276 -282 -295 0
-285 -290 -276 -283 -295 0
-285 -288 -277 -281 -295 0
-285 -289 -277 -282 -295 0
-285 -290 -277 -283 -295 0
-285 -288 -278 -281 -295 0
-285 -289 -278 -282 -295 0
-285 -290 -278 -283 -295 0
-286 -288 -276 -281 -295 0
-286 -289 -276 -282 -295 0
-286 -290 -276 -283 -295 0
-286 -288 -277 -281 -295 0
-286 -289 -277 -282 -295 0
-286 -290 -277 -283 -295 0
-286 -288 -278 -281 -295 0
-286 -289 -278 -282 -295 0
-286 -290 -278 -283 -295 0
-286 -288 -279 -281 -295 0
-286 -289 -279 -282 -295 0
-286 -290 -279 -283 -295 0
-287 -288 -277 -281 -295 0
-287 -289 -277 -282 -295 0
-287 -290 -277 -283 -295 0
-287 -288 -278 -281 -295 0
-287 -289 -278 -282 -295 0
-287 -290 -278 -283 -295 0
-287 -288 -279 -281 -295 0
-287 -289 -279 -282 -295 0
-287 -290 -279 -283 -295 0
11 296 297 298 299 300 0
-11 -296 0
-11 -297 0
-11 -298 0
-11 -299 0
-11 -300 0
-296 -297 0
-296 -298 0
-296 -299 0
-296 -300 0
-297 -298 0
-297 -299 0
-297 -300 0
-298 -299 0
-298 -300 0
-299 -300 0
301 12 302 303 0
-301 -12 0
-301 -302 0
-301 -303 0
-12 -302 0
-12 -303 0
-302 -303 0
304 13 305 306 307 308 0
-304 -13 0
-304 -305 0
-304 -306 0
-304 -307 0
-304 -308 0
-13 -305 0
-13 -306 0
-13 -307 0
-13 -308 0
-305 -306 0
-305 -307 0
-305 -308 0
-306 -307 0
-306 -308 0
-307 -308 0
309 14 310 311 0
-309 -14 0
-309 -310 0
-309 -311 0
-14 -310 0
-14 -311 0
-310 -311 0
9 312 313 314 315 0
-9 -312 0
-9 -313 0
-9 -314 0
-9 -315 0
-312 -313 0
-312 -314 0
-312 -315 0
-313 -314 0
-313 -315 0
-314 -315 0
10 316 317 318 0
-10 -316 0
-10 -317 0
-10 -318 0
-316 -317 0
-316 -318 0
-317 -318 0
319 320 321 15 0
-319 -320 0
-319 -321 0
-319 -15 0
-320 -321 0
-320 -15 0
-321 -15 0
16 322 323 324 0
-16 -322 0
-16 -323 0
-16 -324 0
-322 -323 0
-322 -324 0
-323 -324 0
-11 -301 -304 -309 0
-11 -12 -304 -14 0
-11 -302 -304 -310 0
-11 -303 -304 -311 0
-296 -301 -13 -309 0
-296 -12 -13 -14 0
-296 -302 -13 -310 0
-296 -303 -13 -311 0
-297 -301 -305 -309 0
-297 -12 -305 -14 0
-297 -302 -305 -310 0
-297 -303 -305 -311 0
-298 -301 -306 -309 0
-298 -12 -306 -14 0
-298 -302 -306 -310 0
-298 -303 -306 -311 0
-299 -301 -307 -309 0
-299 -12 -307 -14 0
-299 -302 -307 -310 0
-299 -303 -307 -311 0
-300 -301 -308 -309 0
-300 -12 -308 -14 0
-300 -302 -308 -310 0
-300 -303 -308 -311 0
-11 -301 -9 -10 0
-11 -12 -9 -316 0
-11 -302 -9 -317 0
-11 -303 -9 -318 0
-296 -301 -9 -10 0
-296 -12 -9 -316 0
-296 -302 -9 -317 0
-296 -303 -9 -318 0
-296 -301 -312 -10 0
-296 -12 -312 -316 0
-296 -302 -312 -317 0
-296 -303 -312 -318 0
-297 -301 -312 -10 0
-297 -12 -312 -316 0
-297 -302 -312 -317 0
-297 -303 -312 -318 0
-297 -301 -313 -10 0
-297 -12 -313 -316 0
-297 -302 -313 -317 0
-297 -303 -313 -318 0
-298 -301 -313 -10 0
-298 -12 -313 -316 0
-298 -302 -313 -317 0
-298 -303 -313 -318 0
-298 -301 -314 -10 0
-298 -12 -314 -316 0
-298 -302 -314 -317 0
-298 -303 -314 -318 0
-299 -301 -314 -10 0
-299 -12 -314 -316 0
-299 -302 -314 -317 0
-299 -303 -314 -318 0
-299 -301 -315 -10 0
-299 -12 -315 -316 0
-299 -302 -315 -317 0
-299 -303 -315 -318 0
-300 -301 -315 -10 0
-300 -12 -315 -316 0
-300 -302 -315 -317 0
-300 -303 -315 -318 0
-11 -301 -319 -16 0
-11 -12 -319 -322 0
-11 -302 -319 -323 0
-11 -303 -319 -324 0
-296 -301 -319 -16 0
-296 -12 -319 -322 0
-296 -302 -319 -323 0
-296 -303 -319 -324 0
-296 -301 -320 -16 0
-296 -12 -320 -322 0
-296 -302 -320 -323 0
-296 -303 -320 -324 0
-297 -301 -319 -16 0
-297 -12 -319 -322 0
-297 -302 -319 -323 0
-297 -303 -319 -324 0
-297 -301 -320 -16 0
-297 -12 -320 -322 0
-297 -302 -320 -323 0
-297 -303 -320 -324 0
-297 -301 -321 -16 0
-297 -12 -321 -322 0
-297 -302 -321 -323 0
-297 -303 -321 -324 0
-298 -301 -320 -16 0
-298 -12 -320 -322 0
-298 -302 -320 -323 0
-298 -303 -320 -324 0
-298 -301 -321 -16 0
-298 -12 -321 -322 0
-298 -302 -321 -323 0
-298 -303 -321 -324 0
-298 -301 -15 -16 0
-298 -12 -15 -322 0
-298 -302 -15 -323 0
-298 -303 -15 -324 0
-299 -301 -321 -16 0
-299 -12 -321 -322 0
-299 -302 -321 -323 0
-299 -303 -321 -324 0
-299 -301 -15 -16 0
-299 -12 -15 -322 0
-299 -302 -15 -323 0
-299 -303 -15 -324 0
-300 -301 -15 -16 0
-300 -12 -15 -322 0
-300 -302 -15 -323 0
-300 -303 -15 -324 0
-304 -309 -9 -10 0
-304 -14 -9 -316 0
-304 -310 -9 -317 0
-304 -311 -9 -318 0
-13 -309 -9 -10 0
-13 -14 -9 -316 0
-13 -310 -9 -317 0
-13 -311 -9 -318 0
-13 -309 -312 -10 0
-13 -14 -312 -316 0
-13 -310 -312 -317 0
-13 -311 -312 -318 0
-305 -309 -312 -10 0
-305 -14 -312 -316 0
-305 -310 -312 -317 0
-305 -311 -312 -318 0
-305 -309 -313 -10 0
-305 -14 -313 -316 0
-305 -310 -313 -317 0
-305 -311 -313 -318 0
-306 -309 -313 -10 0
-306 -14 -313 -316 0
-306 -310 -313 -317 0
-306 -311 -313 -318 0
-306 -309 -314 -10 0
-306 -14 -314 -316 0
-306 -310 -314 -317 0
-306 -311 -314 -318 0
-307 -309 -314 -10 0
-307 -14 -314 -316 0
-307 -310 -314 -317 0
-307 -311 -314 -318 0
-307 -309 -315 -10 0
-307 -14 -315 -316 0
-307 -310 -315 -317 0
-307 -311 -315 -318 0
-308 -309 -315 -10 0
-308 -14 -315 -316 0
-308 -310 -315 -317 0
-308 -311 -315 -318 0
-304 -309 -319 -16 0
-304 -14 -319 -322 0
-304 -310 -319 -323 0
-304 -311 -319 -324 0
-13 -309 -319 -16 0
-13 -14 -319 -322 0
-13 -310 -319 -323 0
-13 -311 -319 -324 0
-13 -309 -320 -16 0
-13 -14 -320 -322 0
-13 -310 -320 -323 0
-13 -311 -320 -324 0
-305 -309 -319 -16 0
-305 -14 -319 -322 0
-305 -310 -319 -323 0
-305 -311 -319 -324 0
-305 -309 -320 -16 0
-305 -14 -320 -322 0
-305 -310 -320 -323 0
-305 -311 -320 -324 0
-305 -309 -321 -16 0
-305 -14 -321 -322 0
-305 -310 -321 -323 0
-305 -311 -321 -324 0
-306 -309 -320 -16 0
-306 -14 -320 -322 0
-306 -310 -320 -323 0
-306 -311 -320 -324 0
-306 -309 -321 -16 0
-306 -14 -321 -322 0
-306 -310 -321 -323 0
-306 -311 -321 -324 0
-306 -309 -15 -16 0
-306 -14 -15 -322 0
-306 -310 -15 -323 0
-306 -311 -15 -324 0
-307 -309 -321 -16 0
-307 -14 -321 -322 0
-307 -310 -321 -323 0
-307 -311 -321 -324 0
-307 -309 -15 -16 0
-307 -14 -15 -322 0
-307 -310 -15 -323 0
-307 -311 -15 -324 0
-308 -309 -15 -16 0
-308 -14 -15 -322 0
-308 -310 -15 -323 0
-308 -311 -15 -324 0
-9 -10 -319 -16 0
-9 -316 -319 -322 0
-9 -317 -319 -323 0
-9 -318 -319 -324 0
-9 -10 -320 -16 0
-9 -316 -320 -322 0
-9 -317 -320 -323 0
-9 -318 -320 -324 0
-312 -10 -319 -16 0
-312 -316 -319 -322 0
-312 -317 -319 -323 0
-312 -318 -319 -324 0
-312 -10 -320 -16 0
-312 -316 -320 -322 0
-312 -317 -320 -323 0
-312 -318 -320 -324 0
-312 -10 -321 -16 0
-312 -316 -321 -322 0
-312 -317 -321 -323 0
-312 -318 -321 -324 0
-313 -10 -319 -16 0
-313 -316 -319 -322 0
-313 -317 -319 -323 0
-313 -318 -319 -324 0
-313 -10 -320 -16 0
-313 -316 -320 -322 0
-313 -317 -320 -323 0
-313 -318 -320 -324 0
-313 -10 -321 -16 0
-313 -316 -321 -322 0
-313 -317 -321 -323 0
-313 -318 -321 -324 0
-313 -10 -15 -16 0
-313 -316 -15 -322 0
-313 -317 -15 -323 0
-313 -318 -15 -324 0
-314 -10 -320 -16 0
-314 -316 -320 -322 0
-314 -317 -320 -323 0
-314 -318 -320 -324 0
-314 -10 -321 -16 0
-314 -316 -321 -322 0
-314 -317 -321 -323 0
-314 -318 -321 -324 0
-314 -10 -15 -16 0
-314 -316 -15 -322 0
-314 -317 -15 -323 0
-314 -318 -15 -324 0
-315 -10 -321 -16 0
-315 -316 -321 -322 0
-315 -317 -321 -323 0
-315 -318 -321 -324 0
-315 -10 -15 -16 0
-315 -316 -15 -322 0
-315 -317 -15 -323 0
-315 -318 -15 -324 0
-11 -301 -304 -14 -325 0
-11 -12 -304 -310 -325 0
-11 -302 -304 -311 -325 0
-296 -301 -13 -14 -325 0
-296 -12 -13 -310 -325 0
-296 -302 -13 -311 -325 0
-297 -301 -305 -14 -325 0
-297 -12 -305 -310 -325 0
-297 -302 -305 -311 -325 0
-298 -301 -306 -14 -325 0
-298 -12 -306 -310 -325 0
-298 -302 -306 -311 -325 0
-299 -301 -307 -14 -325 0
-299 -12 -307 -310 -325 0
-299 -302 -307 -311 -325 0
-300 -301 -308 -14 -325 0
-300 -12 -308 -310 -325 0
-300 -302 -308 -311 -325 0
-11 -301 -9 -316 -325 0
-11 -12 -9 -317 -325 0
-11 -302 -9 -318 -325 0
-296 -301 -9 -316 -325 0
-296 -12 -9 -317 -325 0
-296 -302 -9 -318 -325 0
-296 -301 -312 -316 -325 0
-296 -12 -312 -317 -325 0
-296 -302 -312 -318 -325 0
-297 -301 -312 -316 -325 0
-297 -12 -312 -317 -325 0
-297 -302 -312 -318 -325 0
-297 -301 -313 -316 -325 0
-297 -12 -313 -317 -325 0
-297 -302 -313 -318 -325 0
-298 -301 -313 -316 -325 0
-298 -12 -313 -317 -325 0
-298 -302 -313 -318 -325 0
-298 -301 -314 -316 -325 0
-298 -12 -314 -317 -325 0
-298 -302 -314 -318 -325 0
-299 -301 -314 -316 -325 0
-299 -12 -314 -317 -325 0
-299 -302 -314 -318 -325 0
-299 -301 -315 -316 -325 0
-299 -12 -315 -317 -325 0
-299 -302 -315 -318 -325 0
-300 -301 -315 -316 -325 0
-300 -12 -315 -317 -325 0
-300 -302 -315 -318 -325 0
-11 -301 -319 -322 -325 0
-11 -12 -319 -323 -325 0
-11 -302 -319 -324 -325 0
-296 -301 -319 -322 -325 0
-296 -12 -319 -323 -325 0
-296 -302 -319 -324 -325 0
-296 -301 -320 -322 -325 0
-296 -12 -320 -323 -325 0
-296 -302 -320 -324 -325 0
-297 -301 -319 -322 -325 0
-297 -12 -319 -323 -325 0
-297 -302 -319 -324 -325 0
-297 -301 -320 -322 -325 0
-297 -12 -320 -323 -325 0
-297 -302 -320 -324 -325 0
-297 -301 -321 -322 -325 0
-297 -12 -321 -323 -325 0
-297 -302 -321 -324 -325 0
-298 -301 -320 -322 -325 0
-298 -12 -320 -323 -325 0
-298 -302 -320 -324 -325 0
-298 -301 -321 -322 -325 0
-298 -12 -321 -323 -325 0
-298 -302 -321 -324 -325 0
-298 -301 -15 -322 -325 0
-298 -12 -15 -323 -325 0
-298 -302 -15 -324 -325 0
-299 -301 -321 -322 -325 0
-299 -12 -321 -323 -325 0
-299 -302 -321 -324 -325 0
-299 -301 -15 -322 -325 0
-299 -12 -15 -323 -325 0
-299 -302 -15 -324 -325 0
-300 -301 -15 -322 -325 0
-300 -12 -15 -323 -325 0
-300 -302 -15 -324 -325 0
-304 -309 -11 -12 -326 0
-304 -14 -11 -302 -326 0
-304 -310 -11 -303 -326 0
-13 -309 -296 -12 -326 0
-13 -14 -296 -302 -326 0
-13 -310 -296 -303 -326 0
-305 -309 -297 -12 -326 0
-305 -14 -297 -302 -326 0
-305 -310 -297 -303 -326 0
-306 -309 -298 -12 -326 0
-306 -14 -298 -302 -326 0
-306 -310 -298 -303 -326 0
-307 -309 -299 -12 -326 0
-307 -14 -299 -302 -326 0
-307 -310 -299 -303 -326 0
-308 -309 -300 -12 -326 0
-308 -14 -300 -302 -326 0
-308 -310 -300 -303 -326 0
-304 -309 -9 -316 -326 0
-304 -14 -9 -317 -326 0
-304 -310 -9 -318 -326 0
-13 -309 -9 -316 -326 0
-13 -14 -9 -317 -326 0
-13 -310 -9 -318 -326 0
-13 -309 -312 -316 -326 0
-13 -14 -312 -317 -326 0
-13 -310 -312 -318 -326 0
-305 -309 -312 -316 -326 0
-305 -14 -312 -317 -326 0
-305 -310 -312 -318 -326 0
-305 -309 -313 -316 -326 0
-305 -14 -313 -317 -326 0
-305 -310 -313 -318 -326 0
-306 -309 -313 -316 -326 0
-306 -14 -313 -317 -326 0
-306 -310 -313 -318 -326 0
-306 -309 -314 -316 -326 0
-306 -14 -314 -317 -326 0
-306 -310 -314 -318 -326 0
-307 -309 -314 -316 -326 0
-307 -14 -314 -317 -326 0
-307 -310 -314 -318 -326 0
-307 -309 -315 -316 -326 0
-307 -14 -315 -317 -326 0
-307 -310 -315 -318 -326 0
-308 -309 -315 -316 -326 0
-308 -14 -315 -317 -326 0
-308 -310 -315 -318 -326 0
-304 -309 -319 -322 -326 0
-304 -14 -319 -323 -326 0
-304 -310 -319 -324 -326 0
-13 -309 -319 -322 -326 0
-13 -14 -319 -323 -326 0
-13 -310 -319 -324 -326 0
-13 -309 -320 -322 -326 0
-13 -14 -320 -323 -326 0
-13 -310 -320 -324 -326 0
-305 -309 -319 -322 -326 0
-305 -14 -319 -323 -326 0
-305 -310 -319 -324 -326 0
-305 -309 -320 -322 -326 0
-305 -14 -320 -323 -326 0
-305 -310 -320 -324 -326 0
-305 -309 -321 -322 -326 0
-305 -14 -321 -323 -326 0
-305 -310 -321 -324 -326 0
-306 -309 -320 -322 -326 0
-306 -14 -320 -323 -326 0
-306 -310 -320 -324 -326 0
-306 -309 -321 -322 -326 0
-306 -14 -321 -323 -326 0
-306 -310 -321 -324 -326 0
-306 -309 -15 -322 -326 0
-306 -14 -15 -323 -326 0
-306 -310 -15 -324 -326 0
-307 -309 -321 -322 -326 0
-307 -14 -321 -323 -326 0
-307 -310 -321 -324 -326 0
-307 -309 -15 -322 -326 0
-307 -14 -15 -323 -326 0
-307 -310 -15 -324 -326 0
-308 -309 -15 -322 -326 0
-308 -14 -15 -323 -326 0
-308 -310 -15 -324 -326 0
-9 -10 -11 -12 -327 0
-9 -316 -11 -302 -327 0
-9 -317 -11 -303 -327 0
-9 -10 -296 -12 -327 0
-9 -316 -296 -302 -327 0
-9 -317 -296 -303 -327 0
-312 -10 -296 -12 -327 0
-312 -316 -296 -302 -327 0
-312 -317 -296 -303 -327 0
-312 -10 -297 -12 -327 0
-312 -316 -297 -302 -327 0
-312 -317 -297 -303 -327 0
-313 -10 -297 -12 -327 0
-313 -316 -297 -302 -327 0
-313 -317 -297 -303 -327 0
-313 -10 -298 -12 -327 0
-313 -316 -298 -302 -327 0
-313 -317 -298 -303 -327 0
-314 -10 -298 -12 -327 0
-314 -316 -298 -302 -327 0
-314 -317 -298 -303 -327 0
-314 -10 -299 -12 -327 0
-314 -316 -299 -302 -327 0
-314 -317 -299 -303 -327 0
-315 -10 -299 -12 -327 0
-315 -316 -299 -302 -327 0
-315 -317 -299 -303 -327 0
-315 -10 -300 -12 -327 0
-315 -316 -300 -302 -327 0
-315 -317 -300 -303 -327 0
-9 -10 -304 -14 -327 0
-9 -316 -304 -310 -327 0
-9 -317 -304 -311 -327 0
-9 -10 -13 -14 -327 0
-9 -316 -13 -310 -327 0
-9 -317 -13 -311 -327 0
-312 -10 -13 -14 -327 0
-312 -316 -13 -310 -327 0
-312 -317 -13 -311 -327 0
-312 -10 -305 -14 -327 0
-312 -316 -305 -310 -327 0
-312 -317 -305 -311 -327 0
-313 -10 -305 -14 -327 0
-313 -316 -305 -310 -327 0
-313 -317 -305 -311 -327 0
-313 -10 -306 -14 -327 0
-313 -316 -306 -310 -327 0
-313 -317 -306 -311 -327 0
-314 -10 -306 -14 -327 0
-314 -316 -306 -310 -327 0
-314 -317 -306 -311 -327 0
-314 -10 -307 -14 -327 0
-314 -316 -307 -310 -327 0
-314 -317 -307 -311 -327 0
-315 -10 -307 -14 -327 0
-315 -316 -307 -310 -327 0
-315 -317 -307 -311 -327 0
-315 -10 -308 -14 -327 0
-315 -316 -308 -310 -327 0
-315 -317 -308 -311 -327 0
-9 -10 -319 -322 -327 0
-9 -316 -319 -323 -327 0
-9 -317 -319 -324 -327 0
-9 -10 -320 -322 -327 0
-9 -316 -320 -323 -327 0
-9 -317 -320 -324 -327 0
-312 -10 -319 -322 -327 0
-312 -316 -319 -323 -327 0
-312 -317 -319 -324 -327 0
-312 -10 -320 -322 -327 0
-312 -316 -320 -323 -327 0
-312 -317 -320 -324 -327 0
-312 -10 -321 -322 -327 0
-312 -316 -321 -323 -327 0
-312 -317 -321 -324 -327 0
-313 -10 -319 -322 -327 0
-313 -316 -319 -323 -327 0
-313 -317 -319 -324 -327 0
-313 -10 -320 -322 -327 0
-313 -316 -320 -323 -327 0
-313 -317 -320 -324 -327 0
-313 -10 -321 -322 -327 0
-313 -316 -321 -323 -327 0
-313 -317 -321 -324 -327 0
-313 -10 -15 -322 -327 0
-313 -316 -15 -323 -327 0
-313 -317 -15 -324 -327 0
-314 -10 -320 -322 -327 0
-314 -316 -320 -323 -327 0
-314 -317 -320 -324 -327 0
-314 -10 -321 -322 -327 0
-314 -316 -321 -323 -327 0
-314 -317 -321 -324 -327 0
-314 -10 -15 -322 -327 0
-314 -316 -15 -323 -327 0
-314 -317 -15 -324 -327 0
-315 -10 -321 -322 -327 0
-315 -316 -321 -323 -327 0
-315 -317 -321 -324 -327 0
-315 -10 -15 -322 -327 0
-315 -316 -15 -323 -327 0
-315 -317 -15 -324 -327 0
-319 -16 -11 -12 -328 0
-319 -322 -11 -302 -328 0
-319 -323 -11 -303 -328 0
-319 -16 -296 -12 -328 0
-319 -322 -296 -302 -328 0
-319 -323 -296 -303 -328 0
-319 -16 -297 -12 -328 0
-319 -322 -297 -302 -328 0
-319 -323 -297 -303 -328 0
-320 -16 -296 -12 -328 0
-320 -322 -296 -302 -328 0
-320 -323 -296 -303 -328 0
-320 -16 -297 -12 -328 0
-320 -322 -297 -302 -328 0
-320 -323 -297 -303 -328 0
-320 -16 -298 -12 -328 0
-320 -322 -298 -302 -328 0
-320 -323 -298 -303 -328 0
-321 -16 -297 -12 -328 0
-321 -322 -297 -302 -328 0
-321 -323 -297 -303 -328 0
-321 -16 -298 -12 -328 0
-321 -322 -298 -302 -328 0
-321 -323 -298 -303 -328 0
-321 -16 -299 -12 -328 0
-321 -322 -299 -302 -328 0
-321 -323 -299 -303 -328 0
-15 -16 -298 -12 -328 0
-15 -322 -298 -302 -328 0
-15 -323 -298 -303 -328 0
-15 -16 -299 -12 -328 0
-15 -322 -299 -302 -328 0
-15 -323 -299 -303 -328 0
-15 -16 -300 -12 -328 0
-15 -322 -300 -302 -328 0
-15 -323 -300 -303 -328 0
-319 -16 -304 -14 -328 0
-319 -322 -304 -310 -328 0
-319 -323 -304 -311 -328 0
-319 -16 -13 -14 -328 0
-319 -322 -13 -310 -328 0
-319 -323 -13 -311 -328 0
-319 -16 -305 -14 -328 0
-319 -322 -305 -310 -328 0
-319 -323 -305 -311 -328 0
-320 -16 -13 -14 -328 0
-320 -322 -13 -310 -328 0
-320 -323 -13 -311 -328 0
-320 -16 -305 -14 -328 0
-320 -322 -305 -310 -328 0
-320 -323 -305 -311 -328 0
-320 -16 -306 -14 -328 0
-320 -322 -306 -310 -328 0
-320 -323 -306 -311 -328 0
-321 -16 -305 -14 -328 0
-321 -322 -305 -310 -328 0
-321 -323 -305 -311 -328 0
-321 -16 -306 -14 -328 0
-321 -322 -306 -310 -328 0
-321 -323 -306 -311 -328 0
-321 -16 -307 -14 -328 0
-321 -322 -307 -310 -328 0
-321 -323 -307 -311 -328 0
-15 -16 -306 -14 -328 0
-15 -322 -306 -310 -328 0
-15 -323 -306 -311 -328 0
-15 -16 -307 -14 -328 0
-15 -322 -307 -310 -328 0
-15 -323 -307 -311 -328 0
-15 -16 -308 -14 -328 0
-15 -322 -308 -310 -328 0
-15 -323 -308 -311 -328 0
-319 -16 -9 -316 -328 0
-319 -322 -9 -317 -328 0
-319 -323 -9 -318 -328 0
-319 -16 -312 -316 -328 0
-319 -322 -312 -317 -328 0
-319 -323 -312 -318 -328 0
-319 -16 -313 -316 -328 0
-319 -322 -313 -317 -328 0
-319 -323 -313 -318 -328 0
-320 -16 -9 -316 -328 0
-320 -322 -9 -317 -328 0
-320 -323 -9 -318 -328 0
-320 -16 -312 -316 -328 0
-320 -322 -312 -317 -328 0
-320 -323 -312 -318 -328 0
-320 -16 -313 -316 -328 0
-320 -322 -313 -317 -328 0
-320 -323 -313 -318 -328 0
-320 -16 -314 -316 -328 0
-320 -322 -314 -317 -328 0
-320 -323 -314 -318 -328 0
-321 -16 -312 -316 -328 0
-321 -322 -312 -317 -328 0
-321 -323 -312 -318 -328 0
-321 -16 -313 -316 -328 0
-321 -322 -313 -317 -328 0
-321 -323 -313 -318 -328 0
-321 -16 -314 -316 -328 0
-321 -322 -314 -317 -328 0
-321 -323 -314 -318 -328 0
-321 -16 -315 -316 -328 0
-321 -322 -315 -317 -328 0
-321 -323 -315 -318 -328 0
-15 -16 -313 -316 -328 0
-15 -322 -313 -317 -328 0
-15 -323 -313 -318 -328 0
-15 -16 -314 -316 -328 0
-15 -322 -314 -317 -328 0
-15 -323 -314 -318 -328 0
-15 -16 -315 -316 -328 0
-15 -322 -315 -317 -328 0
-15 -323 -315 -318 -328 0
-329 46 0
-329 47 0
-329 -17 0
-329 50 0
-329 -25 -6 57 0
-329 -25 -30 58 0
-329 -25 -31 59 0
-330 46 0
-330 47 0
-330 -18 0
-330 51 0
-330 -26 -6 57 0
-330 -26 -30 58 0
-330 -26 -31 59 0
-331 46 0
-331 47 0
-331 -19 0
-331 52 0
-331 -27 -6 57 0
-331 -27 -30 58 0
-331 -27 -31 59 0
-332 46 0
-332 47 0
-332 -3 0
-332 53 0
-332 -28 -6 57 0
-332 -28 -30 58 0
-332 -28 -31 59 0
-333 46 0
-333 47 0
-333 -20 0
-333 54 0
-333 -29 -6 57 0
-333 -29 -30 58 0
-333 -29 -31 59 0
-334 46 0
-334 47 0
-334 -21 0
-334 55 0
-334 -5 -6 57 0
-334 -5 -30 58 0
-334 -5 -31 59 0
-335 46 0
-335 48 0
-335 -17 0
-335 50 0
-335 -1 -2 57 0
-335 -1 -37 58 0
-335 -1 -38 59 0
-336 46 0
-336 48 0
-336 -18 0
-336 51 0
-336 -1 -2 57 0
-336 -33 -2 57 0
-336 -1 -37 58 0
-336 -33 -37 58 0
-336 -1 -38 59 0
-336 -33 -38 59 0
-337 46 0
-337 48 0
-337 -19 0
-337 52 0
-337 -33 -2 57 0
-337 -34 -2 57 0
-337 -33 -37 58 0
-337 -34 -37 58 0
-337 -33 -38 59 0
-337 -34 -38 59 0
-338 46 0
-338 48 0
-338 -3 0
-338 53 0
-338 -34 -2 57 0
-338 -35 -2 57 0
-338 -34 -37 58 0
-338 -35 -37 58 0
-338 -34 -38 59 0
-338 -35 -38 59 0
-339 46 0
-339 48 0
-339 -20 0
-339 54 0
-339 -35 -2 57 0
-339 -36 -2 57 0
-339 -35 -37 58 0
-339 -36 -37 58 0
-339 -35 -38 59 0
-339 -36 -38 59 0
-340 46 0
-340 48 0
-340 -21 0
-340 55 0
-340 -36 -2 57 0
-340 -36 -37 58 0
-340 -36 -38 59 0
-341 46 0
-341 49 0
-341 -17 0
-341 50 0
-341 -40 -43 57 0
-341 -40 -8 58 0
-341 -40 -44 59 0
-342 46 0
-342 49 0
-342 -18 0
-342 51 0
-342 -40 -43 57 0
-342 -41 -43 57 0
-342 -40 -8 58 0
-342 -41 -8 58 0
-342 -40 -44 59 0
-342 -41 -44 59 0
-343 46 0
-343 49 0
-343 -19 0
-343 52 0
-343 -40 -43 57 0
-343 -41 -43 57 0
-343 -42 -43 57 0
-343 -40 -8 58 0
-343 -41 -8 58 0
-343 -42 -8 58 0
-343 -40 -44 59 0
-343 -41 -44 59 0
-343 -42 -44 59 0
-344 46 0
-344 49 0
-344 -3 0
-344 53 0
-344 -41 -43 57 0
-344 -42 -43 57 0
-344 -7 -43 57 0
-344 -41 -8 58 0
-344 -42 -8 58 0
-344 -7 -8 58 0
-344 -41 -44 59 0
-344 -42 -44 59 0
-344 -7 -44 59 0
-345 46 0
-345 49 0
-345 -20 0
-345 54 0
-345 -42 -43 57 0
-345 -7 -43 57 0
-345 -42 -8 58 0
-345 -7 -8 58 0
-345 -42 -44 59 0
-345 -7 -44 59 0
-346 46 0
-346 49 0
-346 -21 0
-346 55 0
-346 -7 -43 57 0
-346 -7 -8 58 0
-346 -7 -44 59 0
-347 46 0
-347 -17 0
-347 50 0
-347 56 0
-348 46 0
-348 -18 0
-348 51 0
-348 56 0
-349 46 0
-349 -19 0
-349 52 0
-349 56 0
-350 46 0
-350 -3 0
-350 53 0
-350 56 0
-351 46 0
-351 -20 0
-351 54 0
-351 56 0
-352 46 0
-352 -21 0
-352 55 0
-352 56 0
-353 47 0
-353 46 0
-353 -25 0
-353 60 0
-353 -17 -4 67 0
-353 -17 -22 68 0
-353 -17 -23 69 0
-354 47 0
-354 46 0
-354 -26 0
-354 61 0
-354 -18 -4 67 0
-354 -18 -22 68 0
-354 -18 -23 69 0
-355 47 0
-355 46 0
-355 -27 0
-355 62 0
-355 -19 -4 67 0
-355 -19 -22 68 0
-355 -19 -23 69 0
-356 47 0
-356 46 0
-356 -28 0
-356 63 0
-356 -3 -4 67 0
-356 -3 -22 68 0
-356 -3 -23 69 0
-357 47 0
-357 46 0
-357 -29 0
-357 64 0
-357 -20 -4 67 0
-357 -20 -22 68 0
-357 -20 -23 69 0
-358 47 0
-358 46 0
-358 -5 0
-358 65 0
-358 -21 -4 67 0
-358 -21 -22 68 0
-358 -21 -23 69 0
-359 47 0
-359 48 0
-359 -25 0
-359 60 0
-359 -1 -2 67 0
-359 -1 -37 68 0
-359 -1 -38 69 0
-360 47 0
-360 48 0
-360 -26 0
-360 61 0
-360 -1 -2 67 0
-360 -33 -2 67 0
-360 -1 -37 68 0
-360 -33 -37 68 0
-360 -1 -38 69 0
-360 -33 -38 69 0
-361 47 0
-361 48 0
-361 -27 0
-361 62 0
-361 -33 -2 67 0
-361 -34 -2 67 0
-361 -33 -37 68 0
-361 -34 -37 68 0
-361 -33 -38 69 0
-361 -34 -38 69 0
-362 47 0
-362 48 0
-362 -28 0
-362 63 0
-362 -34 -2 67 0
-362 -35 -2 67 0
-362 -34 -37 68 0
-362 -35 -37 68 0
-362 -34 -38 69 0
-362 -35 -38 69 0
-363 47 0
-363 48 0
-363 -29 0
-363 64 0
-363 -35 -2 67 0
-363 -36 -2 67 0
-363 -35 -37 68 0
-363 -36 -37 68 0
-363 -35 -38 69 0
-363 -36 -38 69 0
-364 47 0
-364 48 0
-364 -5 0
-364 65 0
-364 -36 -2 67 0
-364 -36 -37 68 0
-364 -36 -38 69 0
-365 47 0
-365 49 0
-365 -25 0
-365 60 0
-365 -40 -43 67 0
-365 -40 -8 68 0
-365 -40 -44 69 0
-366 47 0
-366 49 0
-366 -26 0
-366 61 0
-366 -40 -43 67 0
-366 -41 -43 67 0
-366 -40 -8 68 0
-366 -41 -8 68 0
-366 -40 -44 69 0
-366 -41 -44 69 0
-367 47 0
-367 49 0
-367 -27 0
-367 62 0
-367 -40 -43 67 0
-367 -41 -43 67 0
-367 -42 -43 67 0
-367 -40 -8 68 0
-367 -41 -8 68 0
-367 -42 -8 68 0
-367 -40 -44 69 0
-367 -41 -44 69 0
-367 -42 -44 69 0
-368 47 0
-368 49 0
-368 -28 0
-368 63 0
-368 -41 -43 67 0
-368 -42 -43 67 0
-368 -7 -43 67 0
-368 -41 -8 68 0
-368 -42 -8 68 0
-368 -7 -8 68 0
-368 -41 -44 69 0
-368 -42 -44 69 0
-368 -7 -44 69 0
-369 47 0
-369 49 0
-369 -29 0
-369 64 0
-369 -42 -43 67 0
-369 -7 -43 67 0
-369 -42 -8 68 0
-369 -7 -8 68 0
-369 -42 -44 69 0
-369 -7 -44 69 0
-370 47 0
-370 49 0
-370 -5 0
-370 65 0
-370 -7 -43 67 0
-370 -7 -8 68 0
-370 -7 -44 69 0
-371 47 0
-371 -25 0
-371 60 0
-371 66 0
-372 47 0
-372 -26 0
-372 61 0
-372 66 0
-373 47 0
-373 -27 0
-373 62 0
-373 66 0
-374 47 0
-374 -28 0
-374 63 0
-374 66 0
-375 47 0
-375 -29 0
-375 64 0
-375 66 0
-376 47 0
-376 -5 0
-376 65 0
-376 66 0
-377 48 0
-377 46 0
-377 -1 0
-377 70 0
-377 -17 -4 76 0
-377 -18 -4 76 0
-377 -17 -22 77 0
-377 -18 -22 77 0
-377 -17 -23 78 0
-377 -18 -23 78 0
-378 48 0
-378 46 0
-378 -33 0
-378 71 0
-378 -18 -4 76 0
-378 -19 -4 76 0
-378 -18 -22 77 0
-378 -19 -22 77 0
-378 -18 -23 78 0
-378 -19 -23 78 0
-379 48 0
-379 46 0
-379 -34 0
-379 72 0
-379 -19 -4 76 0
-379 -3 -4 76 0
-379 -19 -22 77 0
-379 -3 -22 77 0
-379 -19 -23 78 0
-379 -3 -23 78 0
-380 48 0
-380 46 0
-380 -35 0
-380 73 0
-380 -3 -4 76 0
-380 -20 -4 76 0
-380 -3 -22 77 0
-380 -20 -22 77 0
-380 -3 -23 78 0
-380 -20 -23 78 0
-381 48 0
-381 46 0
-381 -36 0
-381 74 0
-381 -20 -4 76 0
-381 -21 -4 76 0
-381 -20 -22 77 0
-381 -21 -22 77 0
-381 -20 -23 78 0
-381 -21 -23 78 0
-382 48 0
-382 47 0
-382 -1 0
-382 70 0
-382 -25 -6 76 0
-382 -26 -6 76 0
-382 -25 -30 77 0
-382 -26 -30 77 0
-382 -25 -31 78 0
-382 -26 -31 78 0
-383 48 0
-383 47 0
-383 -33 0
-383 71 0
-383 -26 -6 76 0
-383 -27 -6 76 0
-383 -26 -30 77 0
-383 -27 -30 77 0
-383 -26 -31 78 0
-383 -27 -31 78 0
-384 48 0
-384 47 0
-384 -34 0
-384 72 0
-384 -27 -6 76 0
-384 -28 -6 76 0
-384 -27 -30 77 0
-384 -28 -30 77 0
-384 -27 -31 78 0
-384 -28 -31 78 0
-385 48 0
-385 47 0
-385 -35 0
-385 73 0
-385 -28 -6 76 0
-385 -29 -6 76 0
-385 -28 -30 77 0
-385 -29 -30 77 0
-385 -28 -31 78 0
-385 -29 -31 78 0
-386 48 0
-386 47 0
-386 -36 0
-386 74 0
-386 -29 -6 76 0
-386 -5 -6 76 0
-386 -29 -30 77 0
-386 -5 -30 77 0
-386 -29 -31 78 0
-386 -5 -31 78 0
-387 48 0
-387 49 0
-387 -1 0
-387 70 0
-387 -40 -43 76 0
-387 -41 -43 76 0
-387 -40 -8 77 0
-387 -41 -8 77 0
-387 -40 -44 78 0
-387 -41 -44 78 0
-388 48 0
-388 49 0
-388 -33 0
-388 71 0
-388 -40 -43 76 0
-388 -41 -43 76 0
-388 -42 -43 76 0
-388 -40 -8 77 0
-388 -41 -8 77 0
-388 -42 -8 77 0
-388 -40 -44 78 0
-388 -41 -44 78 0
-388 -42 -44 78 0
-389 48 0
-389 49 0
-389 -34 0
-389 72 0
-389 -40 -43 76 0
-389 -41 -43 76 0
-389 -42 -43 76 0
-389 -7 -43 76 0
-389 -40 -8 77 0
-389 -41 -8 77 0
-389 -42 -8 77 0
-389 -7 -8 77 0
-389 -40 -44 78 0
-389 -41 -44 78 0
-389 -42 -44 78 0
-389 -7 -44 78 0
-390 48 0
-390 49 0
-390 -35 0
-390 73 0
-390 -41 -43 76 0
-390 -42 -43 76 0
-390 -7 -43 76 0
-390 -41 -8 77 0
-390 -42 -8 77 0
-390 -7 -8 77 0
-390 -41 -44 78 0
-390 -42 -44 78 0
-390 -7 -44 78 0
-391 48 0
-391 49 0
-391 -36 0
-391 74 0
-391 -42 -43 76 0
-391 -7 -43 76 0
-391 -42 -8 77 0
-391 -7 -8 77 0
-391 -42 -44 78 0
-391 -7 -44 78 0
-392 48 0
-392 -1 0
-392 70 0
-392 75 0
-393 48 0
-393 -33 0
-393 71 0
-393 75 0
-394 48 0
-394 -34 0
-394 72 0
-394 75 0
-395 48 0
-395 -35 0
-395 73 0
-395 75 0
-396 48 0
-396 -36 0
-396 74 0
-396 75 0
-397 49 0
-397 46 0
-397 -40 0
-397 79 0
-397 -17 -4 84 0
-397 -18 -4 84 0
-397 -19 -4 84 0
-397 -17 -22 85 0
-397 -18 -22 85 0
-397 -19 -22 85 0
-397 -17 -23 86 0
-397 -18 -23 86 0
-397 -19 -23 86 0
-398 49 0
-398 46 0
-398 -41 0
-398 80 0
-398 -18 -4 84 0
-398 -19 -4 84 0
-398 -3 -4 84 0
-398 -18 -22 85 0
-398 -19 -22 85 0
-398 -3 -22 85 0
-398 -18 -23 86 0
-398 -19 -23 86 0
-398 -3 -23 86 0
-399 49 0
-399 46 0
-399 -42 0
-399 81 0
-399 -19 -4 84 0
-399 -3 -4 84 0
-399 -20 -4 84 0
-399 -19 -22 85 0
-399 -3 -22 85 0
-399 -20 -22 85 0
-399 -19 -23 86 0
-399 -3 -23 86 0
-399 -20 -23 86 0
-400 49 0
-400 46 0
-400 -7 0
-400 82 0
-400 -3 -4 84 0
-400 -20 -4 84 0
-400 -21 -4 84 0
-400 -3 -22 85 0
-400 -20 -22 85 0
-400 -21 -22 85 0
-400 -3 -23 86 0
-400 -20 -23 86 0
-400 -21 -23 86 0
-401 49 0
-401 47 0
-401 -40 0
-401 79 0
-401 -25 -6 84 0
-401 -26 -6 84 0
-401 -27 -6 84 0
-401 -25 -30 85 0
-401 -26 -30 85 0
-401 -27 -30 85 0
-401 -25 -31 86 0
-401 -26 -31 86 0
-401 -27 -31 86 0
-402 49 0
-402 47 0
-402 -41 0
-402 80 0
-402 -26 -6 84 0
-402 -27 -6 84 0
-402 -28 -6 84 0
-402 -26 -30 85 0
-402 -27 -30 85 0
-402 -28 -30 85 0
-402 -26 -31 86 0
-402 -27 -31 86 0
-402 -28 -31 86 0
-403 49 0
-403 47 0
-403 -42 0
-403 81 0
-403 -27 -6 84 0
-403 -28 -6 84 0
-403 -29 -6 84 0
-403 -27 -30 85 0
-403 -28 -30 85 0
-403 -29 -30 85 0
-403 -27 -31 86 0
-403 -28 -31 86 0
-403 -29 -31 86 0
-404 49 0
-404 47 0
-404 -7 0
-404 82 0
-404 -28 -6 84 0
-404 -29 -6 84 0
-404 -5 -6 84 0
-404 -28 -30 85 0
-404 -29 -30 85 0
-404 -5 -30 85 0
-404 -28 -31 86 0
-404 -29 -31 86 0
-404 -5 -31 86 0
-405 49 0
-405 48 0
-405 -40 0
-405 79 0
-405 -1 -2 84 0
-405 -33 -2 84 0
-405 -34 -2 84 0
-405 -1 -37 85 0
-405 -33 -37 85 0
-405 -34 -37 85 0
-405 -1 -38 86 0
-405 -33 -38 86 0
-405 -34 -38 86 0
-406 49 0
-406 48 0
-406 -41 0
-406 80 0
-406 -1 -2 84 0
-406 -33 -2 84 0
-406 -34 -2 84 0
-406 -35 -2 84 0
-406 -1 -37 85 0
-406 -33 -37 85 0
-406 -34 -37 85 0
-406 -35 -37 85 0
-406 -1 -38 86 0
-406 -33 -38 86 0
-406 -34 -38 86 0
-406 -35 -38 86 0
-407 49 0
-407 48 0
-407 -42 0
-407 81 0
-407 -33 -2 84 0
-407 -34 -2 84 0
-407 -35 -2 84 0
-407 -36 -2 84 0
-407 -33 -37 85 0
-407 -34 -37 85 0
-407 -35 -37 85 0
-407 -36 -37 85 0
-407 -33 -38 86 0
-407 -34 -38 86 0
-407 -35 -38 86 0
-407 -36 -38 86 0
-408 49 0
-408 48 0
-408 -7 0
-408 82 0
-408 -34 -2 84 0
-408 -35 -2 84 0
-408 -36 -2 84 0
-408 -34 -37 85 0
-408 -35 -37 85 0
-408 -36 -37 85 0
-408 -34 -38 86 0
-408 -35 -38 86 0
-408 -36 -38 86 0
-409 49 0
-409 -40 0
-409 79 0
-409 83 0
-410 49 0
-410 -41 0
-410 80 0
-410 83 0
-411 49 0
-411 -42 0
-411 81 0
-411 83 0
-412 49 0
-412 -7 0
-412 82 0
-412 83 0
329 330 331 332 333 334 335 336 337 338 339 340 341 342 343 344 345 346 347 348 349 350 351 352 353 354 355 356 357 358 359 360 361 362 363 364 365 366 367 368 369 370 371 372 373 374 375 376 377 378 379 380 381 382 383 384 385 386 387 388 389 390 391 392 393 394 395 396 397 398 399 400 401 402 403 404 405 406 407 408 409 410 411 412 0
-329 -330 0
-329 -331 0
-329 -332 0
-329 -333 0
-329 -334 0
-329 -335 0
-329 -336 0
-329 -337 0
-329 -338 0
-329 -339 0
-329 -340 0
-329 -341 0
-329 -342 0
-329 -343 0
-329 -344 0
-329 -345 0
-329 -346 0
-329 -347 0
-329 -348 0
-329 -349 0
-329 -350 0
-329 -351 0
-329 -352 0
-329 -353 0
-329 -354 0
-329 -355 0
-329 -356 0
-329 -357 0
-329 -358 0
-329 -359 0
-329 -360 0
-329 -361 0
-329 -362 0
-329 -363 0
-329 -364 0
-329 -365 0
-329 -366 0
-329 -367 0
-329 -368 0
-329 -369 0
-329 -370 0
-329 -371 0
-329 -372 0
-329 -373 0
-329 -374 0
-329 -375 0
-329 -376 0
-329 -377 0
-329 -378 0
-329 -379 0
-329 -380 0
-329 -381 0
-329 -382 0
-329 -383 0
-329 -384 0
-329 -385 0
-329 -386 0
-329 -387 0
-329 -388 0
-329 -389 0
-329 -390 0
-329 -391 0
-329 -392 0
-329 -393 0
-329 -394 0
-329 -395 0
-329 -396 0
-329 -397 0
-329 -398 0
-329 -399 0
-329 -400 0
-329 -401 0
-329 -402 0
-329 -403 0
-329 -404 0
-329 -405 0
-329 -406 0
-329 -407 0
-329 -408 0
-329 -409 0
-329 -410 0
-329 -411 0
-329 -412 0
-330 -331 0
-330 -332 0
-330 -333 0
-330 -334 0
-330 -335 0
-330 -336 0
-330 -337 0
-330 -338 0
-330 -339 0
-330 -340 0
-330 -341 0
-330 -342 0
-330 -343 0
-330 -344 0
-330 -345 0
-330 -346 0
-330 -347 0
-330 -348 0
-330 -349 0
-330 -350 0
-330 -351 0
-330 -352 0
-330 -353 0
-330 -354 0
-330 -355 0
-330 -356 0
-330 -357 0
-330 -358 0
-330 -359 0
-330 -360 0
-330 -361 0
-330 -362 0
-330 -363 0
-330 -364 0
-330 -365 0
-330 -366 0
-330 -367 0
-330 -368 0
-330 -369 0
-330 -370 0
-330 -371 0
-330 -372 0
-330 -373 0
-330 -374 0
-330 -375 0
-330 -376 0
-330 -377 0
-330 -378 0
-330 -379 0
-330 -380 0
-330 -381 0
-330 -382 0
-330 -383 0
-330 -384 0
-330 -385 0
-330 -386 0
-330 -387 0
-330 -388 0
-330 -389 0
-330 -390 0
-330 -391 0
-330 -392 0
-330 -393 0
-330 -394 0
-330 -395 0
-330 -396 0
-330 -397 0
-330 -398 0
-330 -399 0
-330 -400 0
-330 -401 0
-330 -402 0
-330 -403 0
-330 -404 0
-330 -405 0
-330 -406 0
-330 -407 0
-330 -408 0
-330 -409 0
-330 -410 0
-330 -411 0
-330 -412 0
-331 -332 0
-331 -333 0
-331 -334 0
-331 -335 0
-331 -336 0
-331 -337 0
-331 -338 0
-331 -339 0
-331 -340 0
-331 -341 0
-331 -342 0
-331 -343 0
-331 -344 0
-331 -345 0
-331 -346 0
-331 -347 0
-331 -348 0
-331 -349 0
-331 -350 0
-331 -351 0
-331 -352 0
-331 -353 0
-331 -354 0
-331 -355 0
-331 -356 0
-331 -357 0
-331 -358 0
-331 -359 0
-331 -360 0
-331 -361 0
-331 -362 0
-331 -363 0
-331 -364 0
-331 -365 0
-331 -366 0
-331 -367 0
-331 -368 0
-331 -369 0
-331 -370 0
-331 -371 0
-331 -372 0
-331 -373 0
-331 -374 0
-331 -375 0
-331 -376 0
-331 -377 0
-331 -378 0
-331 -379 0
-331 -380 0
-331 -381 0
-331 -382 0
-331 -383 0
-331 -384 0
-331 -385 0
-331 -386 0
-331 -387 0
-331 -388 0
-331 -389 0
-331 -390 0
-331 -391 0
-331 -392 0
-331 -393 0
-331 -394 0
-331 -395 0
-331 -396 0
-331 -397 0
-331 -398 0
-331 -399 0
-331 -400 0
-331 -401 0
-331 -402 0
-331 -403 0
-331 -404 0
-331 -405 0
-331 -406 0
-331 -407 0
-331 -408 0
-331 -409 0
-331 -410 0
-331 -411 0
-331 -412 0
-332 -333 0
-332 -334 0
-332 -335 0
-332 -336 0
-332 -337 0
-332 -338 0
-332 -339 0
-332 -340 0
-332 -341 0
-332 -342 0
-332 -343 0
-332 -344 0
-332 -345 0
-332 -346 0
-332 -347 0
-332 -348 0
-332 -349 0
-332 -350 0
-332 -351 0
-332 -352 0
-332 -353 0
-332 -354 0
-332 -355 0
-332 -356 0
-332 -357 0
-332 -358 0
-332 -359 0
-332 -360 0
-332 -361 0
-332 -362 0
-332 -363 0
-332 -364 0
-332 -365 0
-332 -366 0
-332 -367 0
-332 -368 0
-332 -369 0
-332 -370 0
-332 -371 0
-332 -372 0
-332 -373 0
-332 -374 0
-332 -375 0
-332 -376 0
-332 -377 0
-332 -378 0
-332 -379 0
-332 -380 0
-332 -381 0
-332 -382 0
-332 -383 0
-332 -384 0
-332 -385 0
-332 -386 0
-332 -387 0
-332 -388 0
-332 -389 0
-332 -390 0
-332 -391 0
-332 -392 0
-332 -393 0
-332 -394 0
-332 -395 0
-332 -396 0
-332 -397 0
-332 -398 0
-332 -399 0
-332 -400 0
-332 -401 0
-332 -402 0
-332 -403 0
-332 -404 0
-332 -405 0
-332 -406 0
-332 -407 0
-332 -408 0
-332 -409 0
-332 -410 0
-332 -411 0
-332 -412 0
-333 -334 0
-333 -335 0
-333 -336 0
-333 -337 0
-333 -338 0
-333 -339 0
-333 -340 0
-333 -341 0
-333 -342 0
-333 -343 0
-333 -344 0
-333 -345 0
-333 -346 0
-333 -347 0
-333 -348 0
-333 -349 0
-333 -350 0
-333 -351 0
-333 -352 0
-333 -353 0
-333 -354 0
-333 -355 0
-333 -356 0
-333 -357 0
-333 -358 0
-333 -359 0
-333 -360 0
-333 -361 0
-333 -362 0
-333 -363 0
-333 -364 0
-333 -365 0
-333 -366 0
-333 -367 0
-333 -368 0
-333 -369 0
-333 -370 0
-333 -371 0
-333 -372 0
-333 -373 0
-333 -374 0
-333 -375 0
-333 -376 0
-333 -377 0
-333 -378 0
-333 -379 0
-333 -380 0
-333 -381 0
-333 -382 0
-333 -383 0
-333 -384 0
-333 -385 0
-333 -386 0
-333 -387 0
-333 -388 0
-333 -389 0
-333 -390 0
-333 -391 0
-333 -392 0
-333 -393 0
-333 -394 0
-333 -395 0
-333 -396 0
-333 -397 0
-333 -398 0
-333 -399 0
-333 -400 0
-333 -401 0
-333 -402 0
-333 -403 0
-333 -404 0
-333 -405 0
-333 -406 0
-333 -407 0
-333 -408 0
-333 -409 0
-333 -410 0
-333 -411 0
-333 -412 0
-334 -335 0
-334 -336 0
-334 -337 0
-334 -338 0
-334 -339 0
-334 -340 0
-334 -341 0
-334 -342 0
-334 -343 0
-334 -344 0
-334 -345 0
-334 -346 0
-334 -347 0
-334 -348 0
-334 -349 0
-334 -350 0
-334 -351 0
-334 -352 0
-334 -353 0
-334 -354 0
-334 -355 0
-334 -356 0
-334 -357 0
-334 -358 0
-334 -359 0
-334 -360 0
-334 -361 0
-334 -362 0
-334 -363 0
-334 -364 0
-334 -365 0
-334 -366 0
-334 -367 0
-334 -368 0
-334 -369 0
-334 -370 0
-334 -371 0
-334 -372 0
-334 -373 0
-334 -374 0
-334 -375 0
-334 -376 0
-334 -377 0
-334 -378 0
-334 -379 0
-334 -380 0
-334 -381 0
-334 -382 0
-334 -383 0
-334 -384 0
-334 -385 0
-334 -386 0
-334 -387 0
-334 -388 0
-334 -389 0
-334 -390 0
-334 -391 0
-334 -392 0
-334 -393 0
-334 -394 0
-334 -395 0
-334 -396 0
-334 -397 0
-334 -398 0
-334 -399 0
-334 -400 0
-334 -401 0
-334 -402 0
-334 -403 0
-334 -404 0
-334 -405 0
-334 -406 0
-334 -407 0
-334 -408 0
-334 -409 0
-334 -410 0
-334 -411 0
-334 -412 0
-335 -336 0
-335 -337 0
-335 -338 0
-335 -339 0
-335 -340 0
-335 -341 0
-335 -342 0
-335 -343 0
-335 -344 0
-335 -345 0
-335 -346 0
-335 -347 0
-335 -348 0
-335 -349 0
-335 -350 0
-335 -351 0
-335 -352 0
-335 -353 0
-335 -354 0
-335 -355 0
-335 -356 0
-335 -357 0
-335 -358 0
-335 -359 0
-335 -360 0
-335 -361 0
-335 -362 0
-335 -363 0
-335 -364 0
-335 -365 0
-335 -366 0
-335 -367 0
-335 -368 0
-335 -369 0
-335 -370 0
-335 -371 0
-335 -372 0
-335 -373 0
-335 -374 0
-335 -375 0
-335 -376 0
-335 -377 0
-335 -378 0
-335 -379 0
-335 -380 0
-335 -381 0
-335 -382 0
-335 -383 0
-335 -384 0
-335 -385 0
-335 -386 0
-335 -387 0
-335 -388 0
-335 -389 0
-335 -390 0
-335 -391 0
-335 -392 0
-335 -393 0
-335 -394 0
-335 -395 0
-335 -396 0
-335 -397 0
-335 -398 0
-335 -399 0
-335 -400 0
-335 -401 0
-335 -402 0
-335 -403 0
-335 -404 0
-335 -405 0
-335 -406 0
-335 -407 0
-335 -408 0
-335 -409 0
-335 -410 0
-335 -411 0
-335 -412 0
-336 -337 0
-336 -338 0
-336 -339 0
-336 -340 0
-336 -341 0
-336 -342 0
-336 -343 0
-336 -344 0
-336 -345 0
-336 -346 0
-336 -347 0
-336 -348 0
-336 -349 0
-336 -350 0
-336 -351 0
-336 -352 0
-336 -353 0
-336 -354 0
-336 -355 0
-336 -356 0
-336 -357 0
-336 -358 0
-336 -359 0
-336 -360 0
-336 -361 0
-336 -362 0
-336 -363 0
-336 -364 0
-336 -365 0
-336 -366 0
-336 -367 0
-336 -368 0
-336 -369 0
-336 -370 0
-336 -371 0
-336 -372 0
-336 -373 0
-336 -374 0
-336 -375 0
-336 -376 0
-336 -377 0
-336 -378 0
-336 -379 0
-336 -380 0
-336 -381 0
-336 -382 0
-336 -383 0
-336 -384 0
-336 -385 0
-336 -386 0
-336 -387 0
-336 -388 0
-336 -389 0
-336 -390 0
-336 -391 0
-336 -392 0
-336 -393 0
-336 -394 0
-336 -395 0
-336 -396 0
-336 -397 0
-336 -398 0
-336 -399 0
-336 -400 0
-336 -401 0
-336 -402 0
-336 -403 0
-336 -404 0
-336 -405 0
-336 -406 0
-336 -407 0
-336 -408 0
-336 -409 0
-336 -410 0
-336 -411 0
-336 -412 0
-337 -338 0
-337 -339 0
-337 -340 0
-337 -341 0
-337 -342 0
-337 -343 0
-337 -344 0
-337 -345 0
-337 -346 0
-337 -347 0
-337 -348 0
-337 -349 0
-337 -350 0
-337 -351 0
-337 -352 0
-337 -353 0
-337 -354 0
-337 -355 0
-337 -356 0
-337 -357 0
-337 -358 0
-337 -359 0
-337 -360 0
-337 -361 0
-337 -362 0
-337 -363 0
-337 -364 0
-337 -365 0
-337 -366 0
-337 -367 0
-337 -368 0
-337 -369 0
-337 -370 0
-337 -371 0
-337 -372 0
-337 -373 0
-337 -374 0
-337 -375 0
-337 -376 0
-337 -377 0
-337 -378 0
-337 -379 0
-337 -380 0
-337 -381 0
-337 -382 0
-337 -383 0
-337 -384 0
-337 -385 0
-337 -386 0
-337 -387 0
-337 -388 0
-337 -389 0
-337 -390 0
-337 -391 0
-337 -392 0
-337 -393 0
-337 -394 0
-337 -395 0
-337 -396 0
-337 -397 0
-337 -398 0
-337 -399 0
-337 -400 0
-337 -401 0
-337 -402 0
-337 -403 0
-337 -404 0
-337 -405 0
-337 -406 0
-337 -407 0
-337 -408 0
-337 -409 0
-337 -410 0
-337 -411 0
-337 -412 0
-338 -339 0
-338 -340 0
-338 -341 0
-338 -342 0
-338 -343 0
-338 -344 0
-338 -345 0
-338 -346 0
-338 -347 0
-338 -348 0
-338 -349 0
-338 -350 0
-338 -351 0
-338 -352 0
-338 -353 0
-338 -354 0
-338 -355 0
-338 -356 0
-338 -357 0
-338 -358 0
-338 -359 0
-338 -360 0
-338 -361 0
-338 -362 0
-338 -363 0
-338 -364 0
-338 -365 0
-338 -366 0
-338 -367 0
-338 -368 0
-338 -369 0
-338 -370 0
-338 -371 0
-338 -372 0
-338 -373 0
-338 -374 0
-338 -375 0
-338 -376 0
-338 -377 0
-338 -378 0
-338 -379 0
-338 -380 0
-338 -381 0
-338 -382 0
-338 -383 0
-338 -384 0
-338 -385 0
-338 -386 0
-338 -387 0
-338 -388 0
-338 -389 0
-338 -390 0
-338 -391 0
-338 -392 0
-338 -393 0
-338 -394 0
-338 -395 0
-338 -396 0
-338 -397 0
-338 -398 0
-338 -399 0
-338 -400 0
-338 -401 0
-338 -402 0
-338 -403 0
-338 -404 0
-338 -405 0
-338 -406 0
-338 -407 0
-338 -408 0
-338 -409 0
-338 -410 0
-338 -411 0
-338 -412 0
-339 -340 0
-339 -341 0
-339 -342 0
-339 -343 0
-339 -344 0
-339 -345 0
-339 -346 0
-339 -347 0
-339 -348 0
-339 -349 0
-339 -350 0
-339 -351 0
-339 -352 0
-339 -353 0
-339 -354 0
-339 -355 0
-339 -356 0
-339 -357 0
-339 -358 0
-339 -359 0
-339 -360 0
-339 -361 0
-339 -362 0
-339 -363 0
-339 -364 0
-339 -365 0
-339 -366 0
-339 -367 0
-339 -368 0
-339 -369 0
-339 -370 0
-339 -371 0
-339 -372 0
-339 -373 0
-339 -374 0
-339 -375 0
-339 -376 0
-339 -377 0
-339 -378 0
-339 -379 0
-339 -380 0
-339 -381 0
-339 -382 0
-339 -383 0
-339 -384 0
-339 -385 0
-339 -386 0
-339 -387 0
-339 -388 0
-339 -389 0
-339 -390 0
-339 -391 0
-339 -392 0
-339 -393 0
-339 -394 0
-339 -395 0
-339 -396 0
-339 -397 0
-339 -398 0
-339 -399 0
-339 -400 0
-339 -401 0
-339 -402 0
-339 -403 0
-339 -404 0
-339 -405 0
-339 -406 0
-339 -407 0
-339 -408 0
-339 -409 0
-339 -410 0
-339 -411 0
-339 -412 0
-340 -341 0
-340 -342 0
-340 -343 0
-340 -344 0
-340 -345 0
-340 -346 0
-340 -347 0
-340 -348 0
-340 -349 0
-340 -350 0
-340 -351 0
-340 -352 0
-340 -353 0
-340 -354 0
-340 -355 0
-340 -356 0
-340 -357 0
-340 -358 0
-340 -359 0
-340 -360 0
-340 -361 0
-340 -362 0
-340 -363 0
-340 -364 0
-340 -365 0
-340 -366 0
-340 -367 0
-340 -368 0
-340 -369 0
-340 -370 0
-340 -371 0
-340 -372 0
-340 -373 0
-340 -374 0
-340 -375 0
-340 -376 0
-340 -377 0
-340 -378 0
-340 -379 0
-340 -380 0
-340 -381 0
-340 -382 0
-340 -383 0
-340 -384 0
-340 -385 0
-340 -386 0
-340 -387 0
-340 -388 0
-340 -389 0
-340 -390 0
-340 -391 0
-340 -392 0
-340 -393 0
-340 -394 0
-340 -395 0
-340 -396 0
-340 -397 0
-340 -398 0
-340 -399 0
-340 -400 0
-340 -401 0
-340 -402 0
-340 -403 0
-340 -404 0
-340 -405 0
-340 -406 0
-340 -407 0
-340 -408 0
-340 -409 0
-340 -410 0
-340 -411 0
-340 -412 0
-341 -342 0
-341 -343 0
-341 -344 0
-341 -345 0
-341 -346 0
-341 -347 0
-341 -348 0
-341 -349 0
-341 -350 0
-341 -351 0
-341 -352 0
-341 -353 0
-341 -354 0
-341 -355 0
-341 -356 0
-341 -357 0
-341 -358 0
-341 -359 0
-341 -360 0
-341 -361 0
-341 -362 0
-341 -363 0
-341 -364 0
-341 -365 0
-341 -366 0
-341 -367 0
-341 -368 0
-341 -369 0
-341 -370 0
-341 -371 0
-341 -372 0
-341 -373 0
-341 -374 0
-341 -375 0
-341 -376 0
-341 -377 0
-341 -378 0
-341 -379 0
-341 -380 0
-341 -381 0
-341 -382 0
-341 -383 0
-341 -384 0
-341 -385 0
-341 -386 0
-341 -387 0
-341 -388 0
-341 -389 0
-341 -390 0
-341 -391 0
-341 -392 0
-341 -393 0
-341 -394 0
-341 -395 0
-341 -396 0
-341 -397 0
-341 -398 0
-341 -399 0
-341 -400 0
-341 -401 0
-341 -402 0
-341 -403 0
-341 -404 0
-341 -405 0
-341 -406 0
-341 -407 0
-341 -408 0
-341 -409 0
-341 -410 0
-341 -411 0
-341 -412 0
-342 -343 0
-342 -344 0
-342 -345 0
-342 -346 0
-342 -347 0
-342 -348 0
-342 -349 0
-342 -350 0
-342 -351 0
-342 -352 0
-342 -353 0
-342 -354 0
-342 -355 0
-342 -356 0
-342 -357 0
-342 -358 0
-342 -359 0
-342 -360 0
-342 -361 0
-342 -362 0
-342 -363 0
-342 -364 0
-342 -365 0
-342 -366 0
-342 -367 0
-342 -368 0
-342 -369 0
-342 -370 0
-342 -371 0
-342 -372 0
-342 -373 0
-342 -374 0
-342 -375 0
-342 -376 0
-342 -377 0
-342 -378 0
-342 -379 0
-342 -380 0
-342 -381 0
-342 -382 0
-342 -383 0
-342 -384 0
-342 -385 0
-342 -386 0
-342 -387 0
-342 -388 0
-342 -389 0
-342 -390 0
-342 -391 0
-342 -392 0
-342 -393 0
-342 -394 0
-342 -395 0
-342 -396 0
-342 -397 0
-342 -398 0
-342 -399 0
-342 -400 0
-342 -401 0
-342 -402 0
-342 -403 0
-342 -404 0
-342 -405 0
-342 -406 0
-342 -407 0
-342 -408 0
-342 -409 0
-342 -410 0
-342 -411 0
-342 -412 0
-343 -344 0
-343 -345 0
-343 -346 0
-343 -347 0
-343 -348 0
-343 -349 0
-343 -350 0
-343 -351 0
-343 -352 0
-343 -353 0
-343 -354 0
-343 -355 0
-343 -356 0
-343 -357 0
-343 -358 0
-343 -359 0
-343 -360 0
-343 -361 0
-343 -362 0
-343 -363 0
-343 -364 0
-343 -365 0
-343 -366 0
-343 -367 0
-343 -368 0
-343 -369 0
-343 -370 0
-343 -371 0
-343 -372 0
-343 -373 0
-343 -374 0
-343 -375 0
-343 -376 0
-343 -377 0
-343 -378 0
-343 -379 0
-343 -380 0
-343 -381 0
-343 -382 0
-343 -383 0
-343 -384 0
-343 -385 0
-343 -386 0
-343 -387 0
-343 -388 0
-343 -389 0
-343 -390 0
-343 -391 0
-343 -392 0
-343 -393 0
-343 -394 0
-343 -395 0
-343 -396 0
-343 -397 0
-343 -398 0
-343 -399 0
-343 -400 0
-343 -401 0
-343 -402 0
-343 -403 0
-343 -404 0
-343 -405 0
-343 -406 0
-343 -407 0
-343 -408 0
-343 -409 0
-343 -410 0
-343 -411 0
-343 -412 0
-344 -345 0
-344 -346 0
-344 -347 0
-344 -348 0
-344 -349 0
-344 -350 0
-344 -351 0
-344 -352 0
-344 -353 0
-344 -354 0
-344 -355 0
-344 -356 0
-344 -357 0
-344 -358 0
-344 -359 0
-344 -360 0
-344 -361 0
-344 -362 0
-344 -363 0
-344 -364 0
-344 -365 0
-344 -366 0
-344 -367 0
-344 -368 0
-344 -369 0
-344 -370 0
-344 -371 0
-344 -372 0
-344 -373 0
-344 -374 0
-344 -375 0
-344 -376 0
-344 -377 0
-344 -378 0
-344 -379 0
-344 -380 0
-344 -381 0
-344 -382 0
-344 -383 0
-344 -384 0
-344 -385 0
-344 -386 0
-344 -387 0
-344 -388 0
-344 -389 0
-344 -390 0
-344 -391 0
-344 -392 0
-344 -393 0
-344 -394 0
-344 -395 0
-344 -396 0
-344 -397 0
-344 -398 0
-344 -399 0
-344 -400 0
-344 -401 0
-344 -402 0
-344 -403 0
-344 -404 0
-344 -405 0
-344 -406 0
-344 -407 0
-344 -408 0
-344 -409 0
-344 -410 0
-344 -411 0
-344 -412 0
-345 -346 0
-345 -347 0
-345 -348 0
-345 -349 0
-345 -350 0
-345 -351 0
-345 -352 0
-345 -353 0
-345 -354 0
-345 -355 0
-345 -356 0
-345 -357 0
-345 -358 0
-345 -359 0
-345 -360 0
-345 -361 0
-345 -362 0
-345 -363 0
-345 -364 0
-345 -365 0
-345 -366 0
-345 -367 0
-345 -368 0
-345 -369 0
-345 -370 0
-345 -371 0
-345 -372 0
-345 -373 0
-345 -374 0
-345 -375 0
-345 -376 0
-345 -377 0
-345 -378 0
-345 -379 0
-345 -380 0
-345 -381 0
-345 -382 0
-345 -383 0
-345 -384 0
-345 -385 0
-345 -386 0
-345 -387 0
-345 -388 0
-345 -389 0
-345 -390 0
-345 -391 0
-345 -392 0
-345 -393 0
-345 -394 0
-345 -395 0
-345 -396 0
-345 -397 0
-345 -398 0
-345 -399 0
-345 -400 0
-345 -401 0
-345 -402 0
-345 -403 0
-345 -404 0
-345 -405 0
-345 -406 0
-345 -407 0
-345 -408 0
-345 -409 0
-345 -410 0
-345 -411 0
-345 -412 0
-346 -347 0
-346 -348 0
-346 -349 0
-346 -350 0
-346 -351 0
-346 -352 0
-346 -353 0
-346 -354 0
-346 -355 0
-346 -356 0
-346 -357 0
-346 -358 0
-346 -359 0
-346 -360 0
-346 -361 0
-346 -362 0
-346 -363 0
-346 -364 0
-346 -365 0
-346 -366 0
-346 -367 0
-346 -368 0
-346 -369 0
-346 -370 0
-346 -371 0
-346 -372 0
-346 -373 0
-346 -374 0
-346 -375 0
-346 -376 0
-346 -377 0
-346 -378 0
-346 -379 0
-346 -380 0
-346 -381 0
-346 -382 0
-346 -383 0
-346 -384 0
-346 -385 0
-346 -386 0
-346 -387 0
-346 -388 0
-346 -389 0
-346 -390 0
-346 -391 0
-346 -392 0
-346 -393 0
-346 -394 0
-346 -395 0
-346 -396 0
-346 -397 0
-346 -398 0
-346 -399 0
-346 -400 0
-346 -401 0
-346 -402 0
-346 -403 0
-346 -404 0
-346 -405 0
-346 -406 0
-346 -407 0
-346 -408 0
-346 -409 0
-346 -410 0
-346 -411 0
-346 -412 0
-347 -348 0
-347 -349 0
-347 -350 0
-347 -351 0
-347 -352 0
-347 -353 0
-347 -354 0
-347 -355 0
-347 -356 0
-347 -357 0
-347 -358 0
-347 -359 0
-347 -360 0
-347 -361 0
-347 -362 0
-347 -363 0
-347 -364 0
-347 -365 0
-347 -366 0
-347 -367 0
-347 -368 0
-347 -369 0
-347 -370 0
-347 -371 0
-347 -372 0
-347 -373 0
-347 -374 0
-347 -375 0
-347 -376 0
-347 -377 0
-347 -378 0
-347 -379 0
-347 -380 0
-347 -381 0
-347 -382 0
-347 -383 0
-347 -384 0
-347 -385 0
-347 -386 0
-347 -387 0
-347 -388 0
-347 -389 0
-347 -390 0
-347 -391 0
-347 -392 0
-347 -393 0
-347 -394 0
-347 -395 0
-347 -396 0
-347 -397 0
-347 -398 0
-347 -399 0
-347 -400 0
-347 -401 0
-347 -402 0
-347 -403 0
-347 -404 0
-347 -405 0
-347 -406 0
-347 -407 0
-347 -408 0
-347 -409 0
-347 -410 0
-347 -411 0
-347 -412 0
-348 -349 0
-348 -350 0
-348 -351 0
-348 -352 0
-348 -353 0
-348 -354 0
-348 -355 0
-348 -356 0
-348 -357 0
-348 -358 0
-348 -359 0
-348 -360 0
-348 -361 0
-348 -362 0
-348 -363 0
-348 -364 0
-348 -365 0
-348 -366 0
-348 -367 0
-348 -368 0
-348 -369 0
-348 -370 0
-348 -371 0
-348 -372 0
-348 -373 0
-348 -374 0
-348 -375 0
-348 -376 0
-348 -377 0
-348 -378 0
-348 -379 0
-348 -380 0
-348 -381 0
-348 -382 0
-348 -383 0
-348 -384 0
-348 -385 0
-348 -386 0
-348 -387 0
-348 -388 0
-348 -389 0
-348 -390 0
-348 -391 0
-348 -392 0
-348 -393 0
-348 -394 0
-348 -395 0
-348 -396 0
-348 -397 0
-348 -398 0
-348 -399 0
-348 -400 0
-348 -401 0
-348 -402 0
-348 -403 0
-348 -404 0
-348 -405 0
-348 -406 0
-348 -407 0
-348 -408 0
-348 -409 0
-348 -410 0
-348 -411 0
-348 -412 0
-349 -350 0
-349 -351 0
-349 -352 0
-349 -353 0
-349 -354 0
-349 -355 0
-349 -356 0
-349 -357 0
-349 -358 0
-349 -359 0
-349 -360 0
-349 -361 0
-349 -362 0
-349 -363 0
-349 -364 0
-349 -365 0
-349 -366 0
-349 -367 0
-349 -368 0
-349 -369 0
-349 -370 0
-349 -371 0
-349 -372 0
-349 -373 0
-349 -374 0
-349 -375 0
-349 -376 0
-349 -377 0
-349 -378 0
-349 -379 0
-349 -380 0
-349 -381 0
-349 -382 0
-349 -383 0
-349 -384 0
-349 -385 0
-349 -386 0
-349 -387 0
-349 -388 0
-349 -389 0
-349 -390 0
-349 -391 0
-349 -392 0
-349 -393 0
-349 -394 0
-349 -395 0
-349 -396 0
-349 -397 0
-349 -398 0
-349 -399 0
-349 -400 0
-349 -401 0
-349 -402 0
-349 -403 0
-349 -404 0
-349 -405 0
-349 -406 0
-349 -407 0
-349 -408 0
-349 -409 0
-349 -410 0
-349 -411 0
-349 -412 0
-350 -351 0
-350 -352 0
-350 -353 0
-350 -354 0
-350 -355 0
-350 -356 0
-350 -357 0
-350 -358 0
-350 -359 0
-350 -360 0
-350 -361 0
-350 -362 0
-350 -363 0
-350 -364 0
-350 -365 0
-350 -366 0
-350 -367 0
-350 -368 0
-350 -369 0
-350 -370 0
-350 -371 0
-350 -372 0
-350 -373 0
-350 -374 0
-350 -375 0
-350 -376 0
-350 -377 0
-350 -378 0
-350 -379 0
-350 -380 0
-350 -381 0
-350 -382 0
-350 -383 0
-350 -384 0
-350 -385 0
-350 -386 0
-350 -387 0
-350 -388 0
-350 -389 0
-350 -390 0
-350 -391 0
-350 -392 0
-350 -393 0
-350 -394 0
-350 -395 0
-350 -396 0
-350 -397 0
-350 -398 0
-350 -399 0
-350 -400 0
-350 -401 0
-350 -402 0
-350 -403 0
-350 -404 0
-350 -405 0
-350 -406 0
-350 -407 0
-350 -408 0
-350 -409 0
-350 -410 0
-350 -411 0
-350 -412 0
-351 -352 0
-351 -353 0
-351 -354 0
-351 -355 0
-351 -356 0
-351 -357 0
-351 -358 0
-351 -359 0
-351 -360 0
-351 -361 0
-351 -362 0
-351 -363 0
-351 -364 0
-351 -365 0
-351 -366 0
-351 -367 0
-351 -368 0
-351 -369 0
-351 -370 0
-351 -371 0
-351 -372 0
-351 -373 0
-351 -374 0
-351 -375 0
-351 -376 0
-351 -377 0
-351 -378 0
-351 -379 0
-351 -380 0
-351 -381 0
-351 -382 0
-351 -383 0
-351 -384 0
-351 -385 0
-351 -386 0
-351 -387 0
-351 -388 0
-351 -389 0
-351 -390 0
-351 -391 0
-351 -392 0
-351 -393 0
-351 -394 0
-351 -395 0
-351 -396 0
-351 -397 0
-351 -398 0
-351 -399 0
-351 -400 0
-351 -401 0
-351 -402 0
-351 -403 0
-351 -404 0
-351 -405 0
-351 -406 0
-351 -407 0
-351 -408 0
-351 -409 0
-351 -410 0
-351 -411 0
-351 -412 0
-352 -353 0
-352 -354 0
-352 -355 0
-352 -356 0
-352 -357 0
-352 -358 0
-352 -359 0
-352 -360 0
-352 -361 0
-352 -362 0
-352 -363 0
-352 -364 0
-352 -365 0
-352 -366 0
-352 -367 0
-352 -368 0
-352 -369 0
-352 -370 0
-352 -371 0
-352 -372 0
-352 -373 0
-352 -374 0
-352 -375 0
-352 -376 0
-352 -377 0
-352 -378 0
-352 -379 0
-352 -380 0
-352 -381 0
-352 -382 0
-352 -383 0
-352 -384 0
-352 -385 0
-352 -386 0
-352 -387 0
-352 -388 0
-352 -389 0
-352 -390 0
-352 -391 0
-352 -392 0
-352 -393 0
-352 -394 0
-352 -395 0
-352 -396 0
-352 -397 0
-352 -398 0
-352 -399 0
-352 -400 0
-352 -401 0
-352 -402 0
-352 -403 0
-352 -404 0
-352 -405 0
-352 -406 0
-352 -407 0
-352 -408 0
-352 -409 0
-352 -410 0
-352 -411 0
-352 -412 0
-353 -354 0
-353 -355 0
-353 -356 0
-353 -357 0
-353 -358 0
-353 -359 0
-353 -360 0
-353 -361 0
-353 -362 0
-353 -363 0
-353 -364 0
-353 -365 0
-353 -366 0
-353 -367 0
-353 -368 0
-353 -369 0
-353 -370 0
-353 -371 0
-353 -372 0
-353 -373 0
-353 -374 0
-353 -375 0
-353 -376 0
-353 -377 0
-353 -378 0
-353 -379 0
-353 -380 0
-353 -381 0
-353 -382 0
-353 -383 0
-353 -384 0
-353 -385 0
-353 -386 0
-353 -387 0
-353 -388 0
-353 -389 0
-353 -390 0
-353 -391 0
-353 -392 0
-353 -393 0
-353 -394 0
-353 -395 0
-353 -396 0
-353 -397 0
-353 -398 0
-353 -399 0
-353 -400 0
-353 -401 0
-353 -402 0
-353 -403 0
-353 -404 0
-353 -405 0
-353 -406 0
-353 -407 0
-353 -408 0
-353 -409 0
-353 -410 0
-353 -411 0
-353 -412 0
-354 -355 0
-354 -356 0
-354 -357 0
-354 -358 0
-354 -359 0
-354 -360 0
-354 -361 0
-354 -362 0
-354 -363 0
-354 -364 0
-354 -365 0
-354 -366 0
-354 -367 0
-354 -368 0
-354 -369 0
-354 -370 0
-354 -371 0
-354 -372 0
-354 -373 0
-354 -374 0
-354 -375 0
-354 -376 0
-354 -377 0
-354 -378 0
-354 -379 0
-354 -380 0
-354 -381 0
-354 -382 0
-354 -383 0
-354 -384 0
-354 -385 0
-354 -386 0
-354 -387 0
-354 -388 0
-354 -389 0
-354 -390 0
-354 -391 0
-354 -392 0
-354 -393 0
-354 -394 0
-354 -395 0
-354 -396 0
-354 -397 0
-354 -398 0
-354 -399 0
-354 -400 0
-354 -401 0
-354 -402 0
-354 -403 0
-354 -404 0
-354 -405 0
-354 -406 0
-354 -407 0
-354 -408 0
-354 -409 0
-354 -410 0
-354 -411 0
-354 -412 0
-355 -356 0
-355 -357 0
-355 -358 0
-355 -359 0
-355 -360 0
-355 -361 0
-355 -362 0
-355 -363 0
-355 -364 0
-355 -365 0
-355 -366 0
-355 -367 0
-355 -368 0
-355 -369 0
-355 -370 0
-355 -371 0
-355 -372 0
-355 -373 0
-355 -374 0
-355 -375 0
-355 -376 0
-355 -377 0
-355 -378 0
-355 -379 0
-355 -380 0
-355 -381 0
-355 -382 0
-355 -383 0
-355 -384 0
-355 -385 0
-355 -386 0
-355 -387 0
-355 -388 0
-355 -389 0
-355 -390 0
-355 -391 0
-355 -392 0
-355 -393 0
-355 -394 0
-355 -395 0
-355 -396 0
-355 -397 0
-355 -398 0
-355 -399 0
-355 -400 0
-355 -401 0
-355 -402 0
-355 -403 0
-355 -404 0
-355 -405 0
-355 -406 0
-355 -407 0
-355 -408 0
-355 -409 0
-355 -410 0
-355 -411 0
-355 -412 0
-356 -357 0
-356 -358 0
-356 -359 0
-356 -360 0
-356 -361 0
-356 -362 0
-356 -363 0
-356 -364 0
-356 -365 0
-356 -366 0
-356 -367 0
-356 -368 0
-356 -369 0
-356 -370 0
-356 -371 0
-356 -372 0
-356 -373 0
-356 -374 0
-356 -375 0
-356 -376 0
-356 -377 0
-356 -378 0
-356 -379 0
-356 -380 0
-356 -381 0
-356 -382 0
-356 -383 0
-356 -384 0
-356 -385 0
-356 -386 0
-356 -387 0
-356 -388 0
-356 -389 0
-356 -390 0
-356 -391 0
-356 -392 0
-356 -393 0
-356 -394 0
-356 -395 0
-356 -396 0
-356 -397 0
-356 -398 0
-356 -399 0
-356 -400 0
-356 -401 0
-356 -402 0
-356 -403 0
-356 -404 0
-356 -405 0
-356 -406 0
-356 -407 0
-356 -408 0
-356 -409 0
-356 -410 0
-356 -411 0
-356 -412 0
-357 -358 0
-357 -359 0
-357 -360 0
-357 -361 0
-357 -362 0
-357 -363 0
-357 -364 0
-357 -365 0
-357 -366 0
-357 -367 0
-357 -368 0
-357 -369 0
-357 -370 0
-357 -371 0
-357 -372 0
-357 -373 0
-357 -374 0
-357 -375 0
-357 -376 0
-357 -377 0
-357 -378 0
-357 -379 0
-357 -380 0
-357 -381 0
-357 -382 0
-357 -383 0
-357 -384 0
-357 -385 0
-357 -386 0
-357 -387 0
-357 -388 0
-357 -389 0
-357 -390 0
-357 -391 0
-357 -392 0
-357 -393 0
-357 -394 0
-357 -395 0
-357 -396 0
-357 -397 0
-357 -398 0
-357 -399 0
-357 -400 0
-357 -401 0
-357 -402 0
-357 -403 0
-357 -404 0
-357 -405 0
-357 -406 0
-357 -407 0
-357 -408 0
-357 -409 0
-357 -410 0
-357 -411 0
-357 -412 0
-358 -359 0
-358 -360 0
-358 -361 0
-358 -362 0
-358 -363 0
-358 -364 0
-358 -365 0
-358 -366 0
-358 -367 0
-358 -368 0
-358 -369 0
-358 -370 0
-358 -371 0
-358 -372 0
-358 -373 0
-358 -374 0
-358 -375 0
-358 -376 0
-358 -377 0
-358 -378 0
-358 -379 0
-358 -380 0
-358 -381 0
-358 -382 0
-358 -383 0
-358 -384 0
-358 -385 0
-358 -386 0
-358 -387 0
-358 -388 0
-358 -389 0
-358 -390 0
-358 -391 0
-358 -392 0
-358 -393 0
-358 -394 0
-358 -395 0
-358 -396 0
-358 -397 0
-358 -398 0
-358 -399 0
-358 -400 0
-358 -401 0
-358 -402 0
-358 -403 0
-358 -404 0
-358 -405 0
-358 -406 0
-358 -407 0
-358 -408 0
-358 -409 0
-358 -410 0
-358 -411 0
-358 -412 0
-359 -360 0
-359 -361 0
-359 -362 0
-359 -363 0
-359 -364 0
-359 -365 0
-359 -366 0
-359 -367 0
-359 -368 0
-359 -369 0
-359 -370 0
-359 -371 0
-359 -372 0
-359 -373 0
-359 -374 0
-359 -375 0
-359 -376 0
-359 -377 0
-359 -378 0
-359 -379 0
-359 -380 0
-359 -381 0
-359 -382 0
-359 -383 0
-359 -384 0
-359 -385 0
-359 -386 0
-359 -387 0
-359 -388 0
-359 -389 0
-359 -390 0
-359 -391 0
-359 -392 0
-359 -393 0
-359 -394 0
-359 -395 0
-359 -396 0
-359 -397 0
-359 -398 0
-359 -399 0
-359 -400 0
-359 -401 0
-359 -402 0
-359 -403 0
-359 -404 0
-359 -405 0
-359 -406 0
-359 -407 0
-359 -408 0
-359 -409 0
-359 -410 0
-359 -411 0
-359 -412 0
-360 -361 0
-360 -362 0
-360 -363 0
-360 -364 0
-360 -365 0
-360 -366 0
-360 -367 0
-360 -368 0
-360 -369 0
-360 -370 0
-360 -371 0
-360 -372 0
-360 -373 0
-360 -374 0
-360 -375 0
-360 -376 0
-360 -377 0
-360 -378 0
-360 -379 0
-360 -380 0
-360 -381 0
-360 -382 0
-360 -383 0
-360 -384 0
-360 -385 0
-360 -386 0
-360 -387 0
-360 -388 0
-360 -389 0
-360 -390 0
-360 -391 0
-360 -392 0
-360 -393 0
-360 -394 0
-360 -395 0
-360 -396 0
-360 -397 0
-360 -398 0
-360 -399 0
-360 -400 0
-360 -401 0
-360 -402 0
-360 -403 0
-360 -404 0
-360 -405 0
-360 -406 0
-360 -407 0
-360 -408 0
-360 -409 0
-360 -410 0
-360 -411 0
-360 -412 0
-361 -362 0
-361 -363 0
-361 -364 0
-361 -365 0
-361 -366 0
-361 -367 0
-361 -368 0
-361 -369 0
-361 -370 0
-361 -371 0
-361 -372 0
-361 -373 0
-361 -374 0
-361 -375 0
-361 -376 0
-361 -377 0
-361 -378 0
-361 -379 0
-361 -380 0
-361 -381 0
-361 -382 0
-361 -383 0
-361 -384 0
-361 -385 0
-361 -386 0
-361 -387 0
-361 -388 0
-361 -389 0
-361 -390 0
-361 -391 0
-361 -392 0
-361 -393 0
-361 -394 0
-361 -395 0
-361 -396 0
-361 -397 0
-361 -398 0
-361 -399 0
-361 -400 0
-361 -401 0
-361 -402 0
-361 -403 0
-361 -404 0
-361 -405 0
-361 -406 0
-361 -407 0
-361 -408 0
-361 -409 0
-361 -410 0
-361 -411 0
-361 -412 0
-362 -363 0
-362 -364 0
-362 -365 0
-362 -366 0
-362 -367 0
-362 -368 0
-362 -369 0
-362 -370 0
-362 -371 0
-362 -372 0
-362 -373 0
-362 -374 0
-362 -375 0
-362 -376 0
-362 -377 0
-362 -378 0
-362 -379 0
-362 -380 0
-362 -381 0
-362 -382 0
-362 -383 0
-362 -384 0
-362 -385 0
-362 -386 0
-362 -387 0
-362 -388 0
-362 -389 0
-362 -390 0
-362 -391 0
-362 -392 0
-362 -393 0
-362 -394 0
-362 -395 0
-362 -396 0
-362 -397 0
-362 -398 0
-362 -399 0
-362 -400 0
-362 -401 0
-362 -402 0
-362 -403 0
-362 -404 0
-362 -405 0
-362 -406 0
-362 -407 0
-362 -408 0
-362 -409 0
-362 -410 0
-362 -411 0
-362 -412 0
-363 -364 0
-363 -365 0
-363 -366 0
-363 -367 0
-363 -368 0
-363 -369 0
-363 -370 0
-363 -371 0
-363 -372 0
-363 -373 0
-363 -374 0
-363 -375 0
-363 -376 0
-363 -377 0
-363 -378 0
-363 -379 0
-363 -380 0
-363 -381 0
-363 -382 0
-363 -383 0
-363 -384 0
-363 -385 0
-363 -386 0
-363 -387 0
-363 -388 0
-363 -389 0
-363 -390 0
-363 -391 0
-363 -392 0
-363 -393 0
-363 -394 0
-363 -395 0
-363 -396 0
-363 -397 0
-363 -398 0
-363 -399 0
-363 -400 0
-363 -401 0
-363 -402 0
-363 -403 0
-363 -404 0
-363 -405 0
-363 -406 0
-363 -407 0
-363 -408 0
-363 -409 0
-363 -410 0
-363 -411 0
-363 -412 0
-364 -365 0
-364 -366 0
-364 -367 0
-364 -368 0
-364 -369 0
-364 -370 0
-364 -371 0
-364 -372 0
-364 -373 0
-364 -374 0
-364 -375 0
-364 -376 0
-364 -377 0
-364 -378 0
-364 -379 0
-364 -380 0
-364 -381 0
-364 -382 0
-364 -383 0
-364 -384 0
-364 -385 0
-364 -386 0
-364 -387 0
-364 -388 0
-364 -389 0
-364 -390 0
-364 -391 0
-364 -392 0
-364 -393 0
-364 -394 0
-364 -395 0
-364 -396 0
-364 -397 0
-364 -398 0
-364 -399 0
-364 -400 0
-364 -401 0
-364 -402 0
-364 -403 0
-364 -404 0
-364 -405 0
-364 -406 0
-364 -407 0
-364 -408 0
-364 -409 0
-364 -410 0
-364 -411 0
-364 -412 0
-365 -366 0
-365 -367 0
-365 -368 0
-365 -369 0
-365 -370 0
-365 -371 0
-365 -372 0
-365 -373 0
-365 -374 0
-365 -375 0
-365 -376 0
-365 -377 0
-365 -378 0
-365 -379 0
-365 -380 0
-365 -381 0
-365 -382 0
-365 -383 0
-365 -384 0
-365 -385 0
-365 -386 0
-365 -387 0
-365 -388 0
-365 -389 0
-365 -390 0
-365 -391 0
-365 -392 0
-365 -393 0
-365 -394 0
-365 -395 0
-365 -396 0
-365 -397 0
-365 -398 0
-365 -399 0
-365 -400 0
-365 -401 0
-365 -402 0
-365 -403 0
-365 -404 0
-365 -405 0
-365 -406 0
-365 -407 0
-365 -408 0
-365 -409 0
-365 -410 0
-365 -411 0
-365 -412 0
-366 -367 0
-366 -368 0
-366 -369 0
-366 -370 0
-366 -371 0
-366 -372 0
-366 -373 0
-366 -374 0
-366 -375 0
-366 -376 0
-366 -377 0
-366 -378 0
-366 -379 0
-366 -380 0
-366 -381 0
-366 -382 0
-366 -383 0
-366 -384 0
-366 -385 0
-366 -386 0
-366 -387 0
-366 -388 0
-366 -389 0
-366 -390 0
-366 -391 0
-366 -392 0
-366 -393 0
-366 -394 0
-366 -395 0
-366 -396 0
-366 -397 0
-366 -398 0
-366 -399 0
-366 -400 0
-366 -401 0
-366 -402 0
-366 -403 0
-366 -404 0
-366 -405 0
-366 -406 0
-366 -407 0
-366 -408 0
-366 -409 0
-366 -410 0
-366 -411 0
-366 -412 0
-367 -368 0
-367 -369 0
-367 -370 0
-367 -371 0
-367 -372 0
-367 -373 0
-367 -374 0
-367 -375 0
-367 -376 0
-367 -377 0
-367 -378 0
-367 -379 0
-367 -380 0
-367 -381 0
-367 -382 0
-367 -383 0
-367 -384 0
-367 -385 0
-367 -386 0
-367 -387 0
-367 -388 0
-367 -389 0
-367 -390 0
-367 -391 0
-367 -392 0
-367 -393 0
-367 -394 0
-367 -395 0
-367 -396 0
-367 -397 0
-367 -398 0
-367 -399 0
-367 -400 0
-367 -401 0
-367 -402 0
-367 -403 0
-367 -404 0
-367 -405 0
-367 -406 0
-367 -407 0
-367 -408 0
-367 -409 0
-367 -410 0
-367 -411 0
-367 -412 0
-368 -369 0
-368 -370 0
-368 -371 0
-368 -372 0
-368 -373 0
-368 -374 0
-368 -375 0
-368 -376 0
-368 -377 0
-368 -378 0
-368 -379 0
-368 -380 0
-368 -381 0
-368 -382 0
-368 -383 0
-368 -384 0
-368 -385 0
-368 -386 0
-368 -387 0
-368 -388 0
-368 -389 0
-368 -390 0
-368 -391 0
-368 -392 0
-368 -393 0
-368 -394 0
-368 -395 0
-368 -396 0
-368 -397 0
-368 -398 0
-368 -399 0
-368 -400 0
-368 -401 0
-368 -402 0
-368 -403 0
-368 -404 0
-368 -405 0
-368 -406 0
-368 -407 0
-368 -408 0
-368 -409 0
-368 -410 0
-368 -411 0
-368 -412 0
-369 -370 0
-369 -371 0
-369 -372 0
-369 -373 0
-369 -374 0
-369 -375 0
-369 -376 0
-369 -377 0
-369 -378 0
-369 -379 0
-369 -380 0
-369 -381 0
-369 -382 0
-369 -383 0
-369 -384 0
-369 -385 0
-369 -386 0
-369 -387 0
-369 -388 0
-369 -389 0
-369 -390 0
-369 -391 0
-369 -392 0
-369 -393 0
-369 -394 0
-369 -395 0
-369 -396 0
-369 -397 0
-369 -398 0
-369 -399 0
-369 -400 0
-369 -401 0
-369 -402 0
-369 -403 0
-369 -404 0
-369 -405 0
-369 -406 0
-369 -407 0
-369 -408 0
-369 -409 0
-369 -410 0
-369 -411 0
-369 -412 0
-370 -371 0
-370 -372 0
-370 -373 0
-370 -374 0
-370 -375 0
-370 -376 0
-370 -377 0
-370 -378 0
-370 -379 0
-370 -380 0
-370 -381 0
-370 -382 0
-370 -383 0
-370 -384 0
-370 -385 0
-370 -386 0
-370 -387 0
-370 -388 0
-370 -389 0
-370 -390 0
-370 -391 0
-370 -392 0
-370 -393 0
-370 -394 0
-370 -395 0
-370 -396 0
-370 -397 0
-370 -398 0
-370 -399 0
-370 -400 0
-370 -401 0
-370 -402 0
-370 -403 0
-370 -404 0
-370 -405 0
-370 -406 0
-370 -407 0
-370 -408 0
-370 -409 0
-370 -410 0
-370 -411 0
-370 -412 0
-371 -372 0
-371 -373 0
-371 -374 0
-371 -375 0
-371 -376 0
-371 -377 0
-371 -378 0
-371 -379 0
-371 -380 0
-371 -381 0
-371 -382 0
-371 -383 0
-371 -384 0
-371 -385 0
-371 -386 0
-371 -387 0
-371 -388 0
-371 -389 0
-371 -390 0
-371 -391 0
-371 -392 0
-371 -393 0
-371 -394 0
-371 -395 0
-371 -396 0
-371 -397 0
-371 -398 0
-371 -399 0
-371 -400 0
-371 -401 0
-371 -402 0
-371 -403 0
-371 -404 0
-371 -405 0
-371 -406 0
-371 -407 0
-371 -408 0
-371 -409 0
-371 -410 0
-371 -411 0
-371 -412 0
-372 -373 0
-372 -374 0
-372 -375 0
-372 -376 0
-372 -377 0
-372 -378 0
-372 -379 0
-372 -380 0
-372 -381 0
-372 -382 0
-372 -383 0
-372 -384 0
-372 -385 0
-372 -386 0
-372 -387 0
-372 -388 0
-372 -389 0
-372 -390 0
-372 -391 0
-372 -392 0
-372 -393 0
-372 -394 0
-372 -395 0
-372 -396 0
-372 -397 0
-372 -398 0
-372 -399 0
-372 -400 0
-372 -401 0
-372 -402 0
-372 -403 0
-372 -404 0
-372 -405 0
-372 -406 0
-372 -407 0
-372 -408 0
-372 -409 0
-372 -410 0
-372 -411 0
-372 -412 0
-373 -374 0
-373 -375 0
-373 -376 0
-373 -377 0
-373 -378 0
-373 -379 0
-373 -380 0
-373 -381 0
-373 -382 0
-373 -383 0
-373 -384 0
-373 -385 0
-373 -386 0
-373 -387 0
-373 -388 0
-373 -389 0
-373 -390 0
-373 -391 0
-373 -392 0
-373 -393 0
-373 -394 0
-373 -395 0
-373 -396 0
-373 -397 0
-373 -398 0
-373 -399 0
-373 -400 0
-373 -401 0
-373 -402 0
-373 -403 0
-373 -404 0
-373 -405 0
-373 -406 0
-373 -407 0
-373 -408 0
-373 -409 0
-373 -410 0
-373 -411 0
-373 -412 0
-374 -375 0
-374 -376 0
-374 -377 0
-374 -378 0
-374 -379 0
-374 -380 0
-374 -381 0
-374 -382 0
-374 -383 0
-374 -384 0
-374 -385 0
-374 -386 0
-374 -387 0
-374 -388 0
-374 -389 0
-374 -390 0
-374 -391 0
-374 -392 0
-374 -393 0
-374 -394 0
-374 -395 0
-374 -396 0
-374 -397 0
-374 -398 0
-374 -399 0
-374 -400 0
-374 -401 0
-374 -402 0
-374 -403 0
-374 -404 0
-374 -405 0
-374 -406 0
-374 -407 0
-374 -408 0
-374 -409 0
-374 -410 0
-374 -411 0
-374 -412 0
-375 -376 0
-375 -377 0
-375 -378 0
-375 -379 0
-375 -380 0
-375 -381 0
-375 -382 0
-375 -383 0
-375 -384 0
-375 -385 0
-375 -386 0
-375 -387 0
-375 -388 0
-375 -389 0
-375 -390 0
-375 -391 0
-375 -392 0
-375 -393 0
-375 -394 0
-375 -395 0
-375 -396 0
-375 -397 0
-375 -398 0
-375 -399 0
-375 -400 0
-375 -401 0
-375 -402 0
-375 -403 0
-375 -404 0
-375 -405 0
-375 -406 0
-375 -407 0
-375 -408 0
-375 -409 0
-375 -410 0
-375 -411 0
-375 -412 0
-376 -377 0
-376 -378 0
-376 -379 0
-376 -380 0
-376 -381 0
-376 -382 0
-376 -383 0
-376 -384 0
-376 -385 0
-376 -386 0
-376 -387 0
-376 -388 0
-376 -389 0
-376 -390 0
-376 -391 0
-376 -392 0
-376 -393 0
-376 -394 0
-376 -395 0
-376 -396 0
-376 -397 0
-376 -398 0
-376 -399 0
-376 -400 0
-376 -401 0
-376 -402 0
-376 -403 0
-376 -404 0
-376 -405 0
-376 -406 0
-376 -407 0
-376 -408 0
-376 -409 0
-376 -410 0
-376 -411 0
-376 -412 0
-377 -378 0
-377 -379 0
-377 -380 0
-377 -381 0
-377 -382 0
-377 -383 0
-377 -384 0
-377 -385 0
-377 -386 0
-377 -387 0
-377 -388 0
-377 -389 0
-377 -390 0
-377 -391 0
-377 -392 0
-377 -393 0
-377 -394 0
-377 -395 0
-377 -396 0
-377 -397 0
-377 -398 0
-377 -399 0
-377 -400 0
-377 -401 0
-377 -402 0
-377 -403 0
-377 -404 0
-377 -405 0
-377 -406 0
-377 -407 0
-377 -408 0
-377 -409 0
-377 -410 0
-377 -411 0
-377 -412 0
-378 -379 0
-378 -380 0
-378 -381 0
-378 -382 0
-378 -383 0
-378 -384 0
-378 -385 0
-378 -386 0
-378 -387 0
-378 -388 0
-378 -389 0
-378 -390 0
-378 -391 0
-378 -392 0
-378 -393 0
-378 -394 0
-378 -395 0
-378 -396 0
-378 -397 0
-378 -398 0
-378 -399 0
-378 -400 0
-378 -401 0
-378 -402 0
-378 -403 0
-378 -404 0
-378 -405 0
-378 -406 0
-378 -407 0
-378 -408 0
-378 -409 0
-378 -410 0
-378 -411 0
-378 -412 0
-379 -380 0
-379 -381 0
-379 -382 0
-379 -383 0
-379 -384 0
-379 -385 0
-379 -386 0
-379 -387 0
-379 -388 0
-379 -389 0
-379 -390 0
-379 -391 0
-379 -392 0
-379 -393 0
-379 -394 0
-379 -395 0
-379 -396 0
-379 -397 0
-379 -398 0
-379 -399 0
-379 -400 0
-379 -401 0
-379 -402 0
-379 -403 0
-379 -404 0
-379 -405 0
-379 -406 0
-379 -407 0
-379 -408 0
-379 -409 0
-379 -410 0
-379 -411 0
-379 -412 0
-380 -381 0
-380 -382 0
-380 -383 0
-380 -384 0
-380 -385 0
-380 -386 0
-380 -387 0
-380 -388 0
-380 -389 0
-380 -390 0
-380 -391 0
-380 -392 0
-380 -393 0
-380 -394 0
-380 -395 0
-380 -396 0
-380 -397 0
-380 -398 0
-380 -399 0
-380 -400 0
-380 -401 0
-380 -402 0
-380 -403 0
-380 -404 0
-380 -405 0
-380 -406 0
-380 -407 0
-380 -408 0
-380 -409 0
-380 -410 0
-380 -411 0
-380 -412 0
-381 -382 0
-381 -383 0
-381 -384 0
-381 -385 0
-381 -386 0
-381 -387 0
-381 -388 0
-381 -389 0
-381 -390 0
-381 -391 0
-381 -392 0
-381 -393 0
-381 -394 0
-381 -395 0
-381 -396 0
-381 -397 0
-381 -398 0
-381 -399 0
-381 -400 0
-381 -401 0
-381 -402 0
-381 -403 0
-381 -404 0
-381 -405 0
-381 -406 0
-381 -407 0
-381 -408 0
-381 -409 0
-381 -410 0
-381 -411 0
-381 -412 0
-382 -383 0
-382 -384 0
-382 -385 0
-382 -386 0
-382 -387 0
-382 -388 0
-382 -389 0
-382 -390 0
-382 -391 0
-382 -392 0
-382 -393 0
-382 -394 0
-382 -395 0
-382 -396 0
-382 -397 0
-382 -398 0
-382 -399 0
-382 -400 0
-382 -401 0
-382 -402 0
-382 -403 0
-382 -404 0
-382 -405 0
-382 -406 0
-382 -407 0
-382 -408 0
-382 -409 0
-382 -410 0
-382 -411 0
-382 -412 0
-383 -384 0
-383 -385 0
-383 -386 0
-383 -387 0
-383 -388 0
-383 -389 0
-383 -390 0
-383 -391 0
-383 -392 0
-383 -393 0
-383 -394 0
-383 -395 0
-383 -396 0
-383 -397 0
-383 -398 0
-383 -399 0
-383 -400 0
-383 -401 0
-383 -402 0
-383 -403 0
-383 -404 0
-383 -405 0
-383 -406 0
-383 -407 0
-383 -408 0
-383 -409 0
-383 -410 0
-383 -411 0
-383 -412 0
-384 -385 0
-384 -386 0
-384 -387 0
-384 -388 0
-384 -389 0
-384 -390 0
-384 -391 0
-384 -392 0
-384 -393 0
-384 -394 0
-384 -395 0
-384 -396 0
-384 -397 0
-384 -398 0
-384 -399 0
-384 -400 0
-384 -401 0
-384 -402 0
-384 -403 0
-384 -404 0
-384 -405 0
-384 -406 0
-384 -407 0
-384 -408 0
-384 -409 0
-384 -410 0
-384 -411 0
-384 -412 0
-385 -386 0
-385 -387 0
-385 -388 0
-385 -389 0
-385 -390 0
-385 -391 0
-385 -392 0
-385 -393 0
-385 -394 0
-385 -395 0
-385 -396 0
-385 -397 0
-385 -398 0
-385 -399 0
-385 -400 0
-385 -401 0
-385 -402 0
-385 -403 0
-385 -404 0
-385 -405 0
-385 -406 0
-385 -407 0
-385 -408 0
-385 -409 0
-385 -410 0
-385 -411 0
-385 -412 0
-386 -387 0
-386 -388 0
-386 -389 0
-386 -390 0
-386 -391 0
-386 -392 0
-386 -393 0
-386 -394 0
-386 -395 0
-386 -396 0
-386 -397 0
-386 -398 0
-386 -399 0
-386 -400 0
-386 -401 0
-386 -402 0
-386 -403 0
-386 -404 0
-386 -405 0
-386 -406 0
-386 -407 0
-386 -408 0
-386 -409 0
-386 -410 0
-386 -411 0
-386 -412 0
-387 -388 0
-387 -389 0
-387 -390 0
-387 -391 0
-387 -392 0
-387 -393 0
-387 -394 0
-387 -395 0
-387 -396 0
-387 -397 0
-387 -398 0
-387 -399 0
-387 -400 0
-387 -401 0
-387 -402 0
-387 -403 0
-387 -404 0
-387 -405 0
-387 -406 0
-387 -407 0
-387 -408 0
-387 -409 0
-387 -410 0
-387 -411 0
-387 -412 0
-388 -389 0
-388 -390 0
-388 -391 0
-388 -392 0
-388 -393 0
-388 -394 0
-388 -395 0
-388 -396 0
-388 -397 0
-388 -398 0
-388 -399 0
-388 -400 0
-388 -401 0
-388 -402 0
-388 -403 0
-388 -404 0
-388 -405 0
-388 -406 0
-388 -407 0
-388 -408 0
-388 -409 0
-388 -410 0
-388 -411 0
-388 -412 0
-389 -390 0
-389 -391 0
-389 -392 0
-389 -393 0
-389 -394 0
-389 -395 0
-389 -396 0
-389 -397 0
-389 -398 0
-389 -399 0
-389 -400 0
-389 -401 0
-389 -402 0
-389 -403 0
-389 -404 0
-389 -405 0
-389 -406 0
-389 -407 0
-389 -408 0
-389 -409 0
-389 -410 0
-389 -411 0
-389 -412 0
-390 -391 0
-390 -392 0
-390 -393 0
-390 -394 0
-390 -395 0
-390 -396 0
-390 -397 0
-390 -398 0
-390 -399 0
-390 -400 0
-390 -401 0
-390 -402 0
-390 -403 0
-390 -404 0
-390 -405 0
-390 -406 0
-390 -407 0
-390 -408 0
-390 -409 0
-390 -410 0
-390 -411 0
-390 -412 0
-391 -392 0
-391 -393 0
-391 -394 0
-391 -395 0
-391 -396 0
-391 -397 0
-391 -398 0
-391 -399 0
-391 -400 0
-391 -401 0
-391 -402 0
-391 -403 0
-391 -404 0
-391 -405 0
-391 -406 0
-391 -407 0
-391 -408 0
-391 -409 0
-391 -410 0
-391 -411 0
-391 -412 0
-392 -393 0
-392 -394 0
-392 -395 0
-392 -396 0
-392 -397 0
-392 -398 0
-392 -399 0
-392 -400 0
-392 -401 0
-392 -402 0
-392 -403 0
-392 -404 0
-392 -405 0
-392 -406 0
-392 -407 0
-392 -408 0
-392 -409 0
-392 -410 0
-392 -411 0
-392 -412 0
-393 -394 0
-393 -395 0
-393 -396 0
-393 -397 0
-393 -398 0
-393 -399 0
-393 -400 0
-393 -401 0
-393 -402 0
-393 -403 0
-393 -404 0
-393 -405 0
-393 -406 0
-393 -407 0
-393 -408 0
-393 -409 0
-393 -410 0
-393 -411 0
-393 -412 0
-394 -395 0
-394 -396 0
-394 -397 0
-394 -398 0
-394 -399 0
-394 -400 0
-394 -401 0
-394 -402 0
-394 -403 0
-394 -404 0
-394 -405 0
-394 -406 0
-394 -407 0
-394 -408 0
-394 -409 0
-394 -410 0
-394 -411 0
-394 -412 0
-395 -396 0
-395 -397 0
-395 -398 0
-395 -399 0
-395 -400 0
-395 -401 0
-395 -402 0
-395 -403 0
-395 -404 0
-395 -405 0
-395 -406 0
-395 -407 0
-395 -408 0
-395 -409 0
-395 -410 0
-395 -411 0
-395 -412 0
-396 -397 0
-396 -398 0
-396 -399 0
-396 -400 0
-396 -401 0
-396 -402 0
-396 -403 0
-396 -404 0
-396 -405 0
-396 -406 0
-396 -407 0
-396 -408 0
-396 -409 0
-396 -410 0
-396 -411 0
-396 -412 0
-397 -398 0
-397 -399 0
-397 -400 0
-397 -401 0
-397 -402 0
-397 -403 0
-397 -404 0
-397 -405 0
-397 -406 0
-397 -407 0
-397 -408 0
-397 -409 0
-397 -410 0
-397 -411 0
-397 -412 0
-398 -399 0
-398 -400 0
-398 -401 0
-398 -402 0
-398 -403 0
-398 -404 0
-398 -405 0
-398 -406 0
-398 -407 0
-398 -408 0
-398 -409 0
-398 -410 0
-398 -411 0
-398 -412 0
-399 -400 0
-399 -401 0
-399 -402 0
-399 -403 0
-399 -404 0
-399 -405 0
-399 -406 0
-399 -407 0
-399 -408 0
-399 -409 0
-399 -410 0
-399 -411 0
-399 -412 0
-400 -401 0
-400 -402 0
-400 -403 0
-400 -404 0
-400 -405 0
-400 -406 0
-400 -407 0
-400 -408 0
-400 -409 0
-400 -410 0
-400 -411 0
-400 -412 0
-401 -402 0
-401 -403 0
-401 -404 0
-401 -405 0
-401 -406 0
-401 -407 0
-401 -408 0
-401 -409 0
-401 -410 0
-401 -411 0
-401 -412 0
-402 -403 0
-402 -404 0
-402 -405 0
-402 -406 0
-402 -407 0
-402 -408 0
-402 -409 0
-402 -410 0
-402 -411 0
-402 -412 0
-403 -404 0
-403 -405 0
-403 -406 0
-403 -407 0
-403 -408 0
-403 -409 0
-403 -410 0
-403 -411 0
-403 -412 0
-404 -405 0
-404 -406 0
-404 -407 0
-404 -408 0
-404 -409 0
-404 -410 0
-404 -411 0
-404 -412 0
-405 -406 0
-405 -407 0
-405 -408 0
-405 -409 0
-405 -410 0
-405 -411 0
-405 -412 0
-406 -407 0
-406 -408 0
-406 -409 0
-406 -410 0
-406 -411 0
-406 -412 0
-407 -408 0
-407 -409 0
-407 -410 0
-407 -411 0
-407 -412 0
-408 -409 0
-408 -410 0
-408 -411 0
-408 -412 0
-409 -410 0
-409 -411 0
-409 -412 0
-410 -411 0
-410 -412 0
-411 -412 0
329 330 331 332 333 334 335 336 337 338 339 340 341 342 343 344 345 346 347 348 349 350 351 352 -17 50 0
329 330 331 332 333 334 335 336 337 338 339 340 341 342 343 344 345 346 347 348 349 350 351 352 -18 51 0
329 330 331 332 333 334 335 336 337 338 339 340 341 342 343 344 345 346 347 348 349 350 351 352 -19 52 0
329 330 331 332 333 334 335 336 337 338 339 340 341 342 343 344 345 346 347 348 349 350 351 352 -3 53 0
329 330 331 332 333 334 335 336 337 338 339 340 341 342 343 344 345 346 347 348 349 350 351 352 -20 54 0
329 330 331 332 333 334 335 336 337 338 339 340 341 342 343 344 345 346 347 348 349 350 351 352 -21 55 0
329 330 331 332 333 334 335 336 337 338 339 340 341 342 343 344 345 346 347 348 349 350 351 352 -4 56 0
329 330 331 332 333 334 335 336 337 338 339 340 341 342 343 344 345 346 347 348 349 350 351 352 -22 57 0
329 330 331 332 333 334 335 336 337 338 339 340 341 342 343 344 345 346 347 348 349 350 351 352 -23 58 0
329 330 331 332 333 334 335 336 337 338 339 340 341 342 343 344 345 346 347 348 349 350 351 352 -24 59 0
353 354 355 356 357 358 359 360 361 362 363 364 365 366 367 368 369 370 371 372 373 374 375 376 -25 60 0
353 354 355 356 357 358 359 360 361 362 363 364 365 366 367 368 369 370 371 372 373 374 375 376 -26 61 0
353 354 355 356 357 358 359 360 361 362 363 364 365 366 367 368 369 370 371 372 373 374 375 376 -27 62 0
353 354 355 356 357 358 359 360 361 362 363 364 365 366 367 368 369 370 371 372 373 374 375 376 -28 63 0
353 354 355 356 357 358 359 360 361 362 363 364 365 366 367 368 369 370 371 372 373 374 375 376 -29 64 0
353 354 355 356 357 358 359 360 361 362 363 364 365 366 367 368 369 370 371 372 373 374 375 376 -5 65 0
353 354 355 356 357 358 359 360 361 362 363 364 365 366 367 368 369 370 371 372 373 374 375 376 -6 66 0
353 354 355 356 357 358 359 360 361 362 363 364 365 366 367 368 369 370 371 372 373 374 375 376 -30 67 0
353 354 355 356 357 358 359 360 361 362 363 364 365 366 367 368 369 370 371 372 373 374 375 376 -31 68 0
353 354 355 356 357 358 359 360 361 362 363 364 365 366 367 368 369 370 371 372 373 374 375 376 -32 69 0
377 378 379 380 381 382 383 384 385 386 387 388 389 390 391 392 393 394 395 396 -1 70 0
377 378 379 380 381 382 383 384 385 386 387 388 389 390 391 392 393 394 395 396 -33 71 0
377 378 379 380 381 382 383 384 385 386 387 388 389 390 391 392 393 394 395 396 -34 72 0
377 378 379 380 381 382 383 384 385 386 387 388 389 390 391 392 393 394 395 396 -35 73 0
377 378 379 380 381 382 383 384 385 386 387 388 389 390 391 392 393 394 395 396 -36 74 0
377 378 379 380 381 382 383 384 385 386 387 388 389 390 391 392 393 394 395 396 -2 75 0
377 378 379 380 381 382 383 384 385 386 387 388 389 390 391 392 393 394 395 396 -37 76 0
377 378 379 380 381 382 383 384 385 386 387 388 389 390 391 392 393 394 395 396 -38 77 0
377 378 379 380 381 382 383 384 385 386 387 388 389 390 391 392 393 394 395 396 -39 78 0
397 398 399 400 401 402 403 404 405 406 407 408 409 410 411 412 -40 79 0
397 398 399 400 401 402 403 404 405 406 407 408 409 410 411 412 -41 80 0
397 398 399 400 401 402 403 404 405 406 407 408 409 410 411 412 -42 81 0
397 398 399 400 401 402 403 404 405 406 407 408 409 410 411 412 -7 82 0
397 398 399 400 401 402 403 404 405 406 407 408 409 410 411 412 -43 83 0
397 398 399 400 401 402 403 404 405 406 407 408 409 410 411 412 -8 84 0
397 398 399 400 401 402 403 404 405 406 407 408 409 410 411 412 -44 85 0
397 398 399 400 401 402 403 404 405 406 407 408 409 410 411 412 -45 86 0
-413 87 0
-413 88 0
-413 -50 0
-413 91 0
-413 -60 -66 98 0
-413 -60 -67 99 0
-413 -60 -68 100 0
-414 87 0
-414 88 0
-414 -51 0
-414 92 0
-414 -61 -66 98 0
-414 -61 -67 99 0
-414 -61 -68 100 0
-415 87 0
-415 88 0
-415 -52 0
-415 93 0
-415 -62 -66 98 0
-415 -62 -67 99 0
-415 -62 -68 100 0
-416 87 0
-416 88 0
-416 -53 0
-416 94 0
-416 -63 -66 98 0
-416 -63 -67 99 0
-416 -63 -68 100 0
-417 87 0
-417 88 0
-417 -54 0
-417 95 0
-417 -64 -66 98 0
-417 -64 -67 99 0
-417 -64 -68 100 0
-418 87 0
-418 88 0
-418 -55 0
-418 96 0
-418 -65 -66 98 0
-418 -65 -67 99 0
-418 -65 -68 100 0
-419 87 0
-419 89 0
-419 -50 0
-419 91 0
-419 -70 -75 98 0
-419 -70 -76 99 0
-419 -70 -77 100 0
-420 87 0
-420 89 0
-420 -51 0
-420 92 0
-420 -70 -75 98 0
-420 -71 -75 98 0
-420 -70 -76 99 0
-420 -71 -76 99 0
-420 -70 -77 100 0
-420 -71 -77 100 0
-421 87 0
-421 89 0
-421 -52 0
-421 93 0
-421 -71 -75 98 0
-421 -72 -75 98 0
-421 -71 -76 99 0
-421 -72 -76 99 0
-421 -71 -77 100 0
-421 -72 -77 100 0
-422 87 0
-422 89 0
-422 -53 0
-422 94 0
-422 -72 -75 98 0
-422 -73 -75 98 0
-422 -72 -76 99 0
-422 -73 -76 99 0
-422 -72 -77 100 0
-422 -73 -77 100 0
-423 87 0
-423 89 0
-423 -54 0
-423 95 0
-423 -73 -75 98 0
-423 -74 -75 98 0
-423 -73 -76 99 0
-423 -74 -76 99 0
-423 -73 -77 100 0
-423 -74 -77 100 0
-424 87 0
-424 89 0
-424 -55 0
-424 96 0
-424 -74 -75 98 0
-424 -74 -76 99 0
-424 -74 -77 100 0
-425 87 0
-425 90 0
-425 -50 0
-425 91 0
-425 -79 -83 98 0
-425 -79 -84 99 0
-425 -79 -85 100 0
-426 87 0
-426 90 0
-426 -51 0
-426 92 0
-426 -79 -83 98 0
-426 -80 -83 98 0
-426 -79 -84 99 0
-426 -80 -84 99 0
-426 -79 -85 100 0
-426 -80 -85 100 0
-427 87 0
-427 90 0
-427 -52 0
-427 93 0
-427 -79 -83 98 0
-427 -80 -83 98 0
-427 -81 -83 98 0
-427 -79 -84 99 0
-427 -80 -84 99 0
-427 -81 -84 99 0
-427 -79 -85 100 0
-427 -80 -85 100 0
-427 -81 -85 100 0
-428 87 0
-428 90 0
-428 -53 0
-428 94 0
-428 -80 -83 98 0
-428 -81 -83 98 0
-428 -82 -83 98 0
-428 -80 -84 99 0
-428 -81 -84 99 0
-428 -82 -84 99 0
-428 -80 -85 100 0
-428 -81 -85 100 0
-428 -82 -85 100 0
-429 87 0
-429 90 0
-429 -54 0
-429 95 0
-429 -81 -83 98 0
-429 -82 -83 98 0
-429 -81 -84 99 0
-429 -82 -84 99 0
-429 -81 -85 100 0
-429 -82 -85 100 0
-430 87 0
-430 90 0
-430 -55 0
-430 96 0
-430 -82 -83 98 0
-430 -82 -84 99 0
-430 -82 -85 100 0
-431 87 0
-431 -50 0
-431 91 0
-431 97 0
-432 87 0
-432 -51 0
-432 92 0
-432 97 0
-433 87 0
-433 -52 0
-433 93 0
-433 97 0
-434 87 0
-434 -53 0
-434 94 0
-434 97 0
-435 87 0
-435 -54 0
-435 95 0
-435 97 0
-436 87 0
-436 -55 0
-436 96 0
-436 97 0
-437 88 0
-437 87 0
-437 -60 0
-437 101 0
-437 -50 -56 108 0
-437 -50 -57 109 0
-437 -50 -58 110 0
-438 88 0
-438 87 0
-438 -61 0
-438 102 0
-438 -51 -56 108 0
-438 -51 -57 109 0
-438 -51 -58 110 0
-439 88 0
-439 87 0
-439 -62 0
-439 103 0
-439 -52 -56 108 0
-439 -52 -57 109 0
-439 -52 -58 110 0
-440 88 0
-440 87 0
-440 -63 0
-440 104 0
-440 -53 -56 108 0
-440 -53 -57 109 0
-440 -53 -58 110 0
-441 88 0
-441 87 0
-441 -64 0
-441 105 0
-441 -54 -56 108 0
-441 -54 -57 109 0
-441 -54 -58 110 0
-442 88 0
-442 87 0
-442 -65 0
-442 106 0
-442 -55 -56 108 0
-442 -55 -57 109 0
-442 -55 -58 110 0
-443 88 0
-443 89 0
-443 -60 0
-443 101 0
-443 -70 -75 108 0
-443 -70 -76 109 0
-443 -70 -77 110 0
-444 88 0
-444 89 0
-444 -61 0
-444 102 0
-444 -70 -75 108 0
-444 -71 -75 108 0
-444 -70 -76 109 0
-444 -71 -76 109 0
-444 -70 -77 110 0
-444 -71 -77 110 0
-445 88 0
-445 89 0
-445 -62 0
-445 103 0
-445 -71 -75 108 0
-445 -72 -75 108 0
-445 -71 -76 109 0
-445 -72 -76 109 0
-445 -71 -77 110 0
-445 -72 -77 110 0
-446 88 0
-446 89 0
-446 -63 0
-446 104 0
-446 -72 -75 108 0
-446 -73 -75 108 0
-446 -72 -76 109 0
-446 -73 -76 109 0
-446 -72 -77 110 0
-446 -73 -77 110 0
-447 88 0
-447 89 0
-447 -64 0
-447 105 0
-447 -73 -75 108 0
-447 -74 -75 108 0
-447 -73 -76 109 0
-447 -74 -76 109 0
-447 -73 -77 110 0
-447 -74 -77 110 0
-448 88 0
-448 89 0
-448 -65 0
-448 106 0
-448 -74 -75 108 0
-448 -74 -76 109 0
-448 -74 -77 110 0
-449 88 0
-449 90 0
-449 -60 0
-449 101 0
-449 -79 -83 108 0
-449 -79 -84 109 0
-449 -79 -85 110 0
-450 88 0
-450 90 0
-450 -61 0
-450 102 0
-450 -79 -83 108 0
-450 -80 -83 108 0
-450 -79 -84 109 0
-450 -80 -84 109 0
-450 -79 -85 110 0
-450 -80 -85 110 0
-451 88 0
-451 90 0
-451 -62 0
-451 103 0
-451 -79 -83 108 0
-451 -80 -83 108 0
-451 -81 -83 108 0
-451 -79 -84 109 0
-451 -80 -84 109 0
-451 -81 -84 109 0
-451 -79 -85 110 0
-451 -80 -85 110 0
-451 -81 -85 110 0
-452 88 0
-452 90 0
-452 -63 0
-452 104 0
-452 -80 -83 108 0
-452 -81 -83 108 0
-452 -82 -83 108 0
-452 -80 -84 109 0
-452 -81 -84 109 0
-452 -82 -84 109 0
-452 -80 -85 110 0
-452 -81 -85 110 0
-452 -82 -85 110 0
-453 88 0
-453 90 0
-453 -64 0
-453 105 0
-453 -81 -83 108 0
-453 -82 -83 108 0
-453 -81 -84 109 0
-453 -82 -84 109 0
-453 -81 -85 110 0
-453 -82 -85 110 0
-454 88 0
-454 90 0
-454 -65 0
-454 106 0
-454 -82 -83 108 0
-454 -82 -84 109 0
-454 -82 -85 110 0
-455 88 0
-455 -60 0
-455 101 0
-455 107 0
-456 88 0
-456 -61 0
-456 102 0
-456 107 0
-457 88 0
-457 -62 0
-457 103 0
-457 107 0
-458 88 0
-458 -63 0
-458 104 0
-458 107 0
-459 88 0
-459 -64 0
-459 105 0
-459 107 0
-460 88 0
-460 -65 0
-460 106 0
-460 107 0
-461 89 0
-461 87 0
-461 -70 0
-461 111 0
-461 -50 -56 117 0
-461 -51 -56 117 0
-461 -50 -57 118 0
-461 -51 -57 118 0
-461 -50 -58 119 0
-461 -51 -58 119 0
-462 89 0
-462 87 0
-462 -71 0
-462 112 0
-462 -51 -56 117 0
-462 -52 -56 117 0
-462 -51 -57 118 0
-462 -52 -57 118 0
-462 -51 -58 119 0
-462 -52 -58 119 0
-463 89 0
-463 87 0
-463 -72 0
-463 113 0
-463 -52 -56 117 0
-463 -53 -56 117 0
-463 -52 -57 118 0
-463 -53 -57 118 0
-463 -52 -58 119 0
-463 -53 -58 119 0
-464 89 0
-464 87 0
-464 -73 0
-464 114 0
-464 -53 -56 117 0
-464 -54 -56 117 0
-464 -53 -57 118 0
-464 -54 -57 118 0
-464 -53 -58 119 0
-464 -54 -58 119 0
-465 89 0
-465 87 0
-465 -74 0
-465 115 0
-465 -54 -56 117 0
-465 -55 -56 117 0
-465 -54 -57 118 0
-465 -55 -57 118 0
-465 -54 -58 119 0
-465 -55 -58 119 0
-466 89 0
-466 88 0
-466 -70 0
-466 111 0
-466 -60 -66 117 0
-466 -61 -66 117 0
-466 -60 -67 118 0
-466 -61 -67 118 0
-466 -60 -68 119 0
-466 -61 -68 119 0
-467 89 0
-467 88 0
-467 -71 0
-467 112 0
-467 -61 -66 117 0
-467 -62 -66 117 0
-467 -61 -67 118 0
-467 -62 -67 118 0
-467 -61 -68 119 0
-467 -62 -68 119 0
-468 89 0
-468 88 0
-468 -72 0
-468 113 0
-468 -62 -66 117 0
-468 -63 -66 117 0
-468 -62 -67 118 0
-468 -63 -67 118 0
-468 -62 -68 119 0
-468 -63 -68 119 0
-469 89 0
-469 88 0
-469 -73 0
-469 114 0
-469 -63 -66 117 0
-469 -64 -66 117 0
-469 -63 -67 118 0
-469 -64 -67 118 0
-469 -63 -68 119 0
-469 -64 -68 119 0
-470 89 0
-470 88 0
-470 -74 0
-470 115 0
-470 -64 -66 117 0
-470 -65 -66 117 0
-470 -64 -67 118 0
-470 -65 -67 118 0
-470 -64 -68 119 0
-470 -65 -68 119 0
-471 89 0
-471 90 0
-471 -70 0
-471 111 0
-471 -79 -83 117 0
-471 -80 -83 117 0
-471 -79 -84 118 0
-471 -80 -84 118 0
-471 -79 -85 119 0
-471 -80 -85 119 0
-472 89 0
-472 90 0
-472 -71 0
-472 112 0
-472 -79 -83 117 0
-472 -80 -83 117 0
-472 -81 -83 117 0
-472 -79 -84 118 0
-472 -80 -84 118 0
-472 -81 -84 118 0
-472 -79 -85 119 0
-472 -80 -85 119 0
-472 -81 -85 119 0
-473 89 0
-473 90 0
-473 -72 0
-473 113 0
-473 -79 -83 117 0
-473 -80 -83 117 0
-473 -81 -83 117 0
-473 -82 -83 117 0
-473 -79 -84 118 0
-473 -80 -84 118 0
-473 -81 -84 118 0
-473 -82 -84 118 0
-473 -79 -85 119 0
-473 -80 -85 119 0
-473 -81 -85 119 0
-473 -82 -85 119 0
-474 89 0
-474 90 0
-474 -73 0
-474 114 0
-474 -80 -83 117 0
-474 -81 -83 117 0
-474 -82 -83 117 0
-474 -80 -84 118 0
-474 -81 -84 118 0
-474 -82 -84 118 0
-474 -80 -85 119 0
-474 -81 -85 119 0
-474 -82 -85 119 0
-475 89 0
-475 90 0
-475 -74 0
-475 115 0
-475 -81 -83 117 0
-475 -82 -83 117 0
-475 -81 -84 118 0
-475 -82 -84 118 0
-475 -81 -85 119 0
-475 -82 -85 119 0
-476 89 0
-476 -70 0
-476 111 0
-476 116 0
-477 89 0
-477 -71 0
-477 112 0
-477 116 0
-478 89 0
-478 -72 0
-478 113 0
-478 116 0
-479 89 0
-479 -73 0
-479 114 0
-479 116 0
-480 89 0
-480 -74 0
-480 115 0
-480 116 0
-481 90 0
-481 87 0
-481 -79 0
-481 120 0
-481 -50 -56 125 0
-481 -51 -56 125 0
-481 -52 -56 125 0
-481 -50 -57 126 0
-481 -51 -57 126 0
-481 -52 -57 126 0
-481 -50 -58 127 0
-481 -51 -58 127 0
-481 -52 -58 127 0
-482 90 0
-482 87 0
-482 -80 0
-482 121 0
-482 -51 -56 125 0
-482 -52 -56 125 0
-482 -53 -56 125 0
-482 -51 -57 126 0
-482 -52 -57 126 0
-482 -53 -57 126 0
-482 -51 -58 127 0
-482 -52 -58 127 0
-482 -53 -58 127 0
-483 90 0
-483 87 0
-483 -81 0
-483 122 0
-483 -52 -56 125 0
-483 -53 -56 125 0
-483 -54 -56 125 0
-483 -52 -57 126 0
-483 -53 -57 126 0
-483 -54 -57 126 0
-483 -52 -58 127 0
-483 -53 -58 127 0
-483 -54 -58 127 0
-484 90 0
-484 87 0
-484 -82 0
-484 123 0
-484 -53 -56 125 0
-484 -54 -56 125 0
-484 -55 -56 125 0
-484 -53 -57 126 0
-484 -54 -57 126 0
-484 -55 -57 126 0
-484 -53 -58 127 0
-484 -54 -58 127 0
-484 -55 -58 127 0
-485 90 0
-485 88 0
-485 -79 0
-485 120 0
-485 -60 -66 125 0
-485 -61 -66 125 0
-485 -62 -66 125 0
-485 -60 -67 126 0
-485 -61 -67 126 0
-485 -62 -67 126 0
-485 -60 -68 127 0
-485 -61 -68 127 0
-485 -62 -68 127 0
-486 90 0
-486 88 0
-486 -80 0
-486 121 0
-486 -61 -66 125 0
-486 -62 -66 125 0
-486 -63 -66 125 0
-486 -61 -67 126 0
-486 -62 -67 126 0
-486 -63 -67 126 0
-486 -61 -68 127 0
-486 -62 -68 127 0
-486 -63 -68 127 0
-487 90 0
-487 88 0
-487 -81 0
-487 122 0
-487 -62 -66 125 0
-487 -63 -66 125 0
-487 -64 -66 125 0
-487 -62 -67 126 0
-487 -63 -67 126 0
-487 -64 -67 126 0
-487 -62 -68 127 0
-487 -63 -68 127 0
-487 -64 -68 127 0
-488 90 0
-488 88 0
-488 -82 0
-488 123 0
-488 -63 -66 125 0
-488 -64 -66 125 0
-488 -65 -66 125 0
-488 -63 -67 126 0
-488 -64 -67 126 0
-488 -65 -67 126 0
-488 -63 -68 127 0
-488 -64 -68 127 0
-488 -65 -68 127 0
-489 90 0
-489 89 0
-489 -79 0
-489 120 0
-489 -70 -75 125 0
-489 -71 -75 125 0
-489 -72 -75 125 0
-489 -70 -76 126 0
-489 -71 -76 126 0
-489 -72 -76 126 0
-489 -70 -77 127 0
-489 -71 -77 127 0
-489 -72 -77 127 0
-490 90 0
-490 89 0
-490 -80 0
-490 121 0
-490 -70 -75 125 0
-490 -71 -75 125 0
-490 -72 -75 125 0
-490 -73 -75 125 0
-490 -70 -76 126 0
-490 -71 -76 126 0
-490 -72 -76 126 0
-490 -73 -76 126 0
-490 -70 -77 127 0
-490 -71 -77 127 0
-490 -72 -77 127 0
-490 -73 -77 127 0
-491 90 0
-491 89 0
-491 -81 0
-491 122 0
-491 -71 -75 125 0
-491 -72 -75 125 0
-491 -73 -75 125 0
-491 -74 -75 125 0
-491 -71 -76 126 0
-491 -72 -76 126 0
-491 -73 -76 126 0
-491 -74 -76 126 0
-491 -71 -77 127 0
-491 -72 -77 127 0
-491 -73 -77 127 0
-491 -74 -77 127 0
-492 90 0
-492 89 0
-492 -82 0
-492 123 0
-492 -72 -75 125 0
-492 -73 -75 125 0
-492 -74 -75 125 0
-492 -72 -76 126 0
-492 -73 -76 126 0
-492 -74 -76 126 0
-492 -72 -77 127 0
-492 -73 -77 127 0
-492 -74 -77 127 0
-493 90 0
-493 -79 0
-493 120 0
-493 124 0
-494 90 0
-494 -80 0
-494 121 0
-494 124 0
-495 90 0
-495 -81 0
-495 122 0
-495 124 0
-496 90 0
-496 -82 0
-496 123 0
-496 124 0
413 414 415 416 417 418 419 420 421 422 423 424 425 426 427 428 429 430 431 432 433 434 435 436 437 438 439 440 441 442 443 444 445 446 447 448 449 450 451 452 453 454 455 456 457 458 459 460 461 462 463 464 465 466 467 468 469 470 471 472 473 474 475 476 477 478 479 480 481 482 483 484 485 486 487 488 489 490 491 492 493 494 495 496 0
-413 -414 0
-413 -415 0
-413 -416 0
-413 -417 0
-413 -418 0
-413 -419 0
-413 -420 0
-413 -421 0
-413 -422 0
-413 -423 0
-413 -424 0
-413 -425 0
-413 -426 0
-413 -427 0
-413 -428 0
-413 -429 0
-413 -430 0
-413 -431 0
-413 -432 0
-413 -433 0
-413 -434 0
-413 -435 0
-413 -436 0
-413 -437 0
-413 -438 0
-413 -439 0
-413 -440 0
-413 -441 0
-413 -442 0
-413 -443 0
-413 -444 0
-413 -445 0
-413 -446 0
-413 -447 0
-413 -448 0
-413 -449 0
-413 -450 0
-413 -451 0
-413 -452 0
-413 -453 0
-413 -454 0
-413 -455 0
-413 -456 0
-413 -457 0
-413 -458 0
-413 -459 0
-413 -460 0
-413 -461 0
-413 -462 0
-413 -463 0
-413 -464 0
-413 -465 0
-413 -466 0
-413 -467 0
-413 -468 0
-413 -469 0
-413 -470 0
-413 -471 0
-413 -472 0
-413 -473 0
-413 -474 0
-413 -475 0
-413 -476 0
-413 -477 0
-413 -478 0
-413 -479 0
-413 -480 0
-413 -481 0
-413 -482 0
-413 -483 0
-413 -484 0
-413 -485 0
-413 -486 0
-413 -487 0
-413 -488 0
-413 -489 0
-413 -490 0
-413 -491 0
-413 -492 0
-413 -493 0
-413 -494 0
-413 -495 0
-413 -496 0
-414 -415 0
-414 -416 0
-414 -417 0
-414 -418 0
-414 -419 0
-414 -420 0
-414 -421 0
-414 -422 0
-414 -423 0
-414 -424 0
-414 -425 0
-414 -426 0
-414 -427 0
-414 -428 0
-414 -429 0
-414 -430 0
-414 -431 0
-414 -432 0
-414 -433 0
-414 -434 0
-414 -435 0
-414 -436 0
-414 -437 0
-414 -438 0
-414 -439 0
-414 -440 0
-414 -441 0
-414 -442 0
-414 -443 0
-414 -444 0
-414 -445 0
-414 -446 0
-414 -447 0
-414 -448 0
-414 -449 0
-414 -450 0
-414 -451 0
-414 -452 0
-414 -453 0
-414 -454 0
-414 -455 0
-414 -456 0
-414 -457 0
-414 -458 0
-414 -459 0
-414 -460 0
-414 -461 0
-414 -462 0
-414 -463 0
-414 -464 0
-414 -465 0
-414 -466 0
-414 -467 0
-414 -468 0
-414 -469 0
-414 -470 0
-414 -471 0
-414 -472 0
-414 -473 0
-414 -474 0
-414 -475 0
-414 -476 0
-414 -477 0
-414 -478 0
-414 -479 0
-414 -480 0
-414 -481 0
-414 -482 0
-414 -483 0
-414 -484 0
-414 -485 0
-414 -486 0
-414 -487 0
-414 -488 0
-414 -489 0
-414 -490 0
-414 -491 0
-414 -492 0
-414 -493 0
-414 -494 0
-414 -495 0
-414 -496 0
-415 -416 0
-415 -417 0
-415 -418 0
-415 -419 0
-415 -420 0
-415 -421 0
-415 -422 0
-415 -423 0
-415 -424 0
-415 -425 0
-415 -426 0
-415 -427 0
-415 -428 0
-415 -429 0
-415 -430 0
-415 -431 0
-415 -432 0
-415 -433 0
-415 -434 0
-415 -435 0
-415 -436 0
-415 -437 0
-415 -438 0
-415 -439 0
-415 -440 0
-415 -441 0
-415 -442 0
-415 -443 0
-415 -444 0
-415 -445 0
-415 -446 0
-415 -447 0
-415 -448 0
-415 -449 0
-415 -450 0
-415 -451 0
-415 -452 0
-415 -453 0
-415 -454 0
-415 -455 0
-415 -456 0
-415 -457 0
-415 -458 0
-415 -459 0
-415 -460 0
-415 -461 0
-415 -462 0
-415 -463 0
-415 -464 0
-415 -465 0
-415 -466 0
-415 -467 0
-415 -468 0
-415 -469 0
-415 -470 0
-415 -471 0
-415 -472 0
-415 -473 0
-415 -474 0
-415 -475 0
-415 -476 0
-415 -477 0
-415 -478 0
-415 -479 0
-415 -480 0
-415 -481 0
-415 -482 0
-415 -483 0
-415 -484 0
-415 -485 0
-415 -486 0
-415 -487 0
-415 -488 0
-415 -489 0
-415 -490 0
-415 -491 0
-415 -492 0
-415 -493 0
-415 -494 0
-415 -495 0
-415 -496 0
-416 -417 0
-416 -418 0
-416 -419 0
-416 -420 0
-416 -421 0
-416 -422 0
-416 -423 0
-416 -424 0
-416 -425 0
-416 -426 0
-416 -427 0
-416 -428 0
-416 -429 0
-416 -430 0
-416 -431 0
-416 -432 0
-416 -433 0
-416 -434 0
-416 -435 0
-416 -436 0
-416 -437 0
-416 -438 0
-416 -439 0
-416 -440 0
-416 -441 0
-416 -442 0
-416 -443 0
-416 -444 0
-416 -445 0
-416 -446 0
-416 -447 0
-416 -448 0
-416 -449 0
-416 -450 0
-416 -451 0
-416 -452 0
-416 -453 0
-416 -454 0
-416 -455 0
-416 -456 0
-416 -457 0
-416 -458 0
-416 -459 0
-416 -460 0
-416 -461 0
-416 -462 0
-416 -463 0
-416 -464 0
-416 -465 0
-416 -466 0
-416 -467 0
-416 -468 0
-416 -469 0
-416 -470 0
-416 -471 0
-416 -472 0
-416 -473 0
-416 -474 0
-416 -475 0
-416 -476 0
-416 -477 0
-416 -478 0
-416 -479 0
-416 -480 0
-416 -481 0
-416 -482 0
-416 -483 0
-416 -484 0
-416 -485 0
-416 -486 0
-416 -487 0
-416 -488 0
-416 -489 0
-416 -490 0
-416 -491 0
-416 -492 0
-416 -493 0
-416 -494 0
-416 -495 0
-416 -496 0
-417 -418 0
-417 -419 0
-417 -420 0
-417 -421 0
-417 -422 0
-417 -423 0
-417 -424 0
-417 -425 0
-417 -426 0
-417 -427 0
-417 -428 0
-417 -429 0
-417 -430 0
-417 -431 0
-417 -432 0
-417 -433 0
-417 -434 0
-417 -435 0
-417 -436 0
-417 -437 0
-417 -438 0
-417 -439 0
-417 -440 0
-417 -441 0
-417 -442 0
-417 -443 0
-417 -444 0
-417 -445 0
-417 -446 0
-417 -447 0
-417 -448 0
-417 -449 0
-417 -450 0
-417 -451 0
-417 -452 0
-417 -453 0
-417 -454 0
-417 -455 0
-417 -456 0
-417 -457 0
-417 -458 0
-417 -459 0
-417 -460 0
-417 -461 0
-417 -462 0
-417 -463 0
-417 -464 0
-417 -465 0
-417 -466 0
-417 -467 0
-417 -468 0
-417 -469 0
-417 -470 0
-417 -471 0
-417 -472 0
-417 -473 0
-417 -474 0
-417 -475 0
-417 -476 0
-417 -477 0
-417 -478 0
-417 -479 0
-417 -480 0
-417 -481 0
-417 -482 0
-417 -483 0
-417 -484 0
-417 -485 0
-417 -486 0
-417 -487 0
-417 -488 0
-417 -489 0
-417 -490 0
-417 -491 0
-417 -492 0
-417 -493 0
-417 -494 0
-417 -495 0
-417 -496 0
-418 -419 0
-418 -420 0
-418 -421 0
-418 -422 0
-418 -423 0
-418 -424 0
-418 -425 0
-418 -426 0
-418 -427 0
-418 -428 0
-418 -429 0
-418 -430 0
-418 -431 0
-418 -432 0
-418 -433 0
-418 -434 0
-418 -435 0
-418 -436 0
-418 -437 0
-418 -438 0
-418 -439 0
-418 -440 0
-418 -441 0
-418 -442 0
-418 -443 0
-418 -444 0
-418 -445 0
-418 -446 0
-418 -447 0
-418 -448 0
-418 -449 0
-418 -450 0
-418 -451 0
-418 -452 0
-418 -453 0
-418 -454 0
-418 -455 0
-418 -456 0
-418 -457 0
-418 -458 0
-418 -459 0
-418 -460 0
-418 -461 0
-418 -462 0
-418 -463 0
-418 -464 0
-418 -465 0
-418 -466 0
-418 -467 0
-418 -468 0
-418 -469 0
-418 -470 0
-418 -471 0
-418 -472 0
-418 -473 0
-418 -474 0
-418 -475 0
-418 -476 0
-418 -477 0
-418 -478 0
-418 -479 0
-418 -480 0
-418 -481 0
-418 -482 0
-418 -483 0
-418 -484 0
-418 -485 0
-418 -486 0
-418 -487 0
-418 -488 0
-418 -489 0
-418 -490 0
-418 -491 0
-418 -492 0
-418 -493 0
-418 -494 0
-418 -495 0
-418 -496 0
-419 -420 0
-419 -421 0
-419 -422 0
-419 -423 0
-419 -424 0
-419 -425 0
-419 -426 0
-419 -427 0
-419 -428 0
-419 -429 0
-419 -430 0
-419 -431 0
-419 -432 0
-419 -433 0
-419 -434 0
-419 -435 0
-419 -436 0
-419 -437 0
-419 -438 0
-419 -439 0
-419 -440 0
-419 -441 0
-419 -442 0
-419 -443 0
-419 -444 0
-419 -445 0
-419 -446 0
-419 -447 0
-419 -448 0
-419 -449 0
-419 -450 0
-419 -451 0
-419 -452 0
-419 -453 0
-419 -454 0
-419 -455 0
-419 -456 0
-419 -457 0
-419 -458 0
-419 -459 0
-419 -460 0
-419 -461 0
-419 -462 0
-419 -463 0
-419 -464 0
-419 -465 0
-419 -466 0
-419 -467 0
-419 -468 0
-419 -469 0
-419 -470 0
-419 -471 0
-419 -472 0
-419 -473 0
-419 -474 0
-419 -475 0
-419 -476 0
-419 -477 0
-419 -478 0
-419 -479 0
-419 -480 0
-419 -481 0
-419 -482 0
-419 -483 0
-419 -484 0
-419 -485 0
-419 -486 0
-419 -487 0
-419 -488 0
-419 -489 0
-419 -490 0
-419 -491 0
-419 -492 0
-419 -493 0
-419 -494 0
-419 -495 0
-419 -496 0
-420 -421 0
-420 -422 0
-420 -423 0
-420 -424 0
-420 -425 0
-420 -426 0
-420 -427 0
-420 -428 0
-420 -429 0
-420 -430 0
-420 -431 0
-420 -432 0
-420 -433 0
-420 -434 0
-420 -435 0
-420 -436 0
-420 -437 0
-420 -438 0
-420 -439 0
-420 -440 0
-420 -441 0
-420 -442 0
-420 -443 0
-420 -444 0
-420 -445 0
-420 -446 0
-420 -447 0
-420 -448 0
-420 -449 0
-420 -450 0
-420 -451 0
-420 -452 0
-420 -453 0
-420 -454 0
-420 -455 0
-420 -456 0
-420 -457 0
-420 -458 0
-420 -459 0
-420 -460 0
-420 -461 0
-420 -462 0
-420 -463 0
-420 -464 0
-420 -465 0
-420 -466 0
-420 -467 0
-420 -468 0
-420 -469 0
-420 -470 0
-420 -471 0
-420 -472 0
-420 -473 0
-420 -474 0
-420 -475 0
-420 -476 0
-420 -477 0
-420 -478 0
-420 -479 0
-420 -480 0
-420 -481 0
-420 -482 0
-420 -483 0
-420 -484 0
-420 -485 0
-420 -486 0
-420 -487 0
-420 -488 0
-420 -489 0
-420 -490 0
-420 -491 0
-420 -492 0
-420 -493 0
-420 -494 0
-420 -495 0
-420 -496 0
-421 -422 0
-421 -423 0
-421 -424 0
-421 -425 0
-421 -426 0
-421 -427 0
-421 -428 0
-421 -429 0
-421 -430 0
-421 -431 0
-421 -432 0
-421 -433 0
-421 -434 0
-421 -435 0
-421 -436 0
-421 -437 0
-421 -438 0
-421 -439 0
-421 -440 0
-421 -441 0
-421 -442 0
-421 -443 0
-421 -444 0
-421 -445 0
-421 -446 0
-421 -447 0
-421 -448 0
-421 -449 0
-421 -450 0
-421 -451 0
-421 -452 0
-421 -453 0
-421 -454 0
-421 -455 0
-421 -456 0
-421 -457 0
-421 -458 0
-421 -459 0
-421 -460 0
-421 -461 0
-421 -462 0
-421 -463 0
-421 -464 0
-421 -465 0
-421 -466 0
-421 -467 0
-421 -468 0
-421 -469 0
-421 -470 0
-421 -471 0
-421 -472 0
-421 -473 0
-421 -474 0
-421 -475 0
-421 -476 0
-421 -477 0
-421 -478 0
-421 -479 0
-421 -480 0
-421 -481 0
-421 -482 0
-421 -483 0
-421 -484 0
-421 -485 0
-421 -486 0
-421 -487 0
-421 -488 0
-421 -489 0
-421 -490 0
-421 -491 0
-421 -492 0
-421 -493 0
-421 -494 0
-421 -495 0
-421 -496 0
-422 -423 0
-422 -424 0
-422 -425 0
-422 -426 0
-422 -427 0
-422 -428 0
-422 -429 0
-422 -430 0
-422 -431 0
-422 -432 0
-422 -433 0
-422 -434 0
-422 -435 0
-422 -436 0
-422 -437 0
-422 -438 0
-422 -439 0
-422 -440 0
-422 -441 0
-422 -442 0
-422 -443 0
-422 -444 0
-422 -445 0
-422 -446 0
-422 -447 0
-422 -448 0
-422 -449 0
-422 -450 0
-422 -451 0
-422 -452 0
-422 -453 0
-422 -454 0
-422 -455 0
-422 -456 0
-422 -457 0
-422 -458 0
-422 -459 0
-422 -460 0
-422 -461 0
-422 -462 0
-422 -463 0
-422 -464 0
-422 -465 0
-422 -466 0
-422 -467 0
-422 -468 0
-422 -469 0
-422 -470 0
-422 -471 0
-422 -472 0
-422 -473 0
-422 -474 0
-422 -475 0
-422 -476 0
-422 -477 0
-422 -478 0
-422 -479 0
-422 -480 0
-422 -481 0
-422 -482 0
-422 -483 0
-422 -484 0
-422 -485 0
-422 -486 0
-422 -487 0
-422 -488 0
-422 -489 0
-422 -490 0
-422 -491 0
-422 -492 0
-422 -493 0
-422 -494 0
-422 -495 0
-422 -496 0
-423 -424 0
-423 -425 0
-423 -426 0
-423 -427 0
-423 -428 0
-423 -429 0
-423 -430 0
-423 -431 0
-423 -432 0
-423 -433 0
-423 -434 0
-423 -435 0
-423 -436 0
-423 -437 0
-423 -438 0
-423 -439 0
-423 -440 0
-423 -441 0
-423 -442 0
-423 -443 0
-423 -444 0
-423 -445 0
-423 -446 0
-423 -447 0
-423 -448 0
-423 -449 0
-423 -450 0
-423 -451 0
-423 -452 0
-423 -453 0
-423 -454 0
-423 -455 0
-423 -456 0
-423 -457 0
-423 -458 0
-423 -459 0
-423 -460 0
-423 -461 0
-423 -462 0
-423 -463 0
-423 -464 0
-423 -465 0
-423 -466 0
-423 -467 0
-423 -468 0
-423 -469 0
-423 -470 0
-423 -471 0
-423 -472 0
-423 -473 0
-423 -474 0
-423 -475 0
-423 -476 0
-423 -477 0
-423 -478 0
-423 -479 0
-423 -480 0
-423 -481 0
-423 -482 0
-423 -483 0
-423 -484 0
-423 -485 0
-423 -486 0
-423 -487 0
-423 -488 0
-423 -489 0
-423 -490 0
-423 -491 0
-423 -492 0
-423 -493 0
-423 -494 0
-423 -495 0
-423 -496 0
-424 -425 0
-424 -426 0
-424 -427 0
-424 -428 0
-424 -429 0
-424 -430 0
-424 -431 0
-424 -432 0
-424 -433 0
-424 -434 0
-424 -435 0
-424 -436 0
-424 -437 0
-424 -438 0
-424 -439 0
-424 -440 0
-424 -441 0
-424 -442 0
-424 -443 0
-424 -444 0
-424 -445 0
-424 -446 0
-424 -447 0
-424 -448 0
-424 -449 0
-424 -450 0
-424 -451 0
-424 -452 0
-424 -453 0
-424 -454 0
-424 -455 0
-424 -456 0
-424 -457 0
-424 -458 0
-424 -459 0
-424 -460 0
-424 -461 0
-424 -462 0
-424 -463 0
-424 -464 0
-424 -465 0
-424 -466 0
-424 -467 0
-424 -468 0
-424 -469 0
-424 -470 0
-424 -471 0
-424 -472 0
-424 -473 0
-424 -474 0
-424 -475 0
-424 -476 0
-424 -477 0
-424 -478 0
-424 -479 0
-424 -480 0
-424 -481 0
-424 -482 0
-424 -483 0
-424 -484 0
-424 -485 0
-424 -486 0
-424 -487 0
-424 -488 0
-424 -489 0
-424 -490 0
-424 -491 0
-424 -492 0
-424 -493 0
-424 -494 0
-424 -495 0
-424 -496 0
-425 -426 0
-425 -427 0
-425 -428 0
-425 -429 0
-425 -430 0
-425 -431 0
-425 -432 0
-425 -433 0
-425 -434 0
-425 -435 0
-425 -436 0
-425 -437 0
-425 -438 0
-425 -439 0
-425 -440 0
-425 -441 0
-425 -442 0
-425 -443 0
-425 -444 0
-425 -445 0
-425 -446 0
-425 -447 0
-425 -448 0
-425 -449 0
-425 -450 0
-425 -451 0
-425 -452 0
-425 -453 0
-425 -454 0
-425 -455 0
-425 -456 0
-425 -457 0
-425 -458 0
-425 -459 0
-425 -460 0
-425 -461 0
-425 -462 0
-425 -463 0
-425 -464 0
-425 -465 0
-425 -466 0
-425 -467 0
-425 -468 0
-425 -469 0
-425 -470 0
-425 -471 0
-425 -472 0
-425 -473 0
-425 -474 0
-425 -475 0
-425 -476 0
-425 -477 0
-425 -478 0
-425 -479 0
-425 -480 0
-425 -481 0
-425 -482 0
-425 -483 0
-425 -484 0
-425 -485 0
-425 -486 0
-425 -487 0
-425 -488 0
-425 -489 0
-425 -490 0
-425 -491 0
-425 -492 0
-425 -493 0
-425 -494 0
-425 -495 0
-425 -496 0
-426 -427 0
-426 -428 0
-426 -429 0
-426 -430 0
-426 -431 0
-426 -432 0
-426 -433 0
-426 -434 0
-426 -435 0
-426 -436 0
-426 -437 0
-426 -438 0
-426 -439 0
-426 -440 0
-426 -441 0
-426 -442 0
-426 -443 0
-426 -444 0
-426 -445 0
-426 -446 0
-426 -447 0
-426 -448 0
-426 -449 0
-426 -450 0
-426 -451 0
-426 -452 0
-426 -453 0
-426 -454 0
-426 -455 0
-426 -456 0
-426 -457 0
-426 -458 0
-426 -459 0
-426 -460 0
-426 -461 0
-426 -462 0
-426 -463 0
-426 -464 0
-426 -465 0
-426 -466 0
-426 -467 0
-426 -468 0
-426 -469 0
-426 -470 0
-426 -471 0
-426 -472 0
-426 -473 0
-426 -474 0
-426 -475 0
-426 -476 0
-426 -477 0
-426 -478 0
-426 -479 0
-426 -480 0
-426 -481 0
-426 -482 0
-426 -483 0
-426 -484 0
-426 -485 0
-426 -486 0
-426 -487 0
-426 -488 0
-426 -489 0
-426 -490 0
-426 -491 0
-426 -492 0
-426 -493 0
-426 -494 0
-426 -495 0
-426 -496 0
-427 -428 0
-427 -429 0
-427 -430 0
-427 -431 0
-427 -432 0
-427 -433 0
-427 -434 0
-427 -435 0
-427 -436 0
-427 -437 0
-427 -438 0
-427 -439 0
-427 -440 0
-427 -441 0
-427 -442 0
-427 -443 0
-427 -444 0
-427 -445 0
-427 -446 0
-427 -447 0
-427 -448 0
-427 -449 0
-427 -450 0
-427 -451 0
-427 -452 0
-427 -453 0
-427 -454 0
-427 -455 0
-427 -456 0
-427 -457 0
-427 -458 0
-427 -459 0
-427 -460 0
-427 -461 0
-427 -462 0
-427 -463 0
-427 -464 0
-427 -465 0
-427 -466 0
-427 -467 0
-427 -468 0
-427 -469 0
-427 -470 0
-427 -471 0
-427 -472 0
-427 -473 0
-427 -474 0
-427 -475 0
-427 -476 0
-427 -477 0
-427 -478 0
-427 -479 0
-427 -480 0
-427 -481 0
-427 -482 0
-427 -483 0
-427 -484 0
-427 -485 0
-427 -486 0
-427 -487 0
-427 -488 0
-427 -489 0
-427 -490 0
-427 -491 0
-427 -492 0
-427 -493 0
-427 -494 0
-427 -495 0
-427 -496 0
-428 -429 0
-428 -430 0
-428 -431 0
-428 -432 0
-428 -433 0
-428 -434 0
-428 -435 0
-428 -436 0
-428 -437 0
-428 -438 0
-428 -439 0
-428 -440 0
-428 -441 0
-428 -442 0
-428 -443 0
-428 -444 0
-428 -445 0
-428 -446 0
-428 -447 0
-428 -448 0
-428 -449 0
-428 -450 0
-428 -451 0
-428 -452 0
-428 -453 0
-428 -454 0
-428 -455 0
-428 -456 0
-428 -457 0
-428 -458 0
-428 -459 0
-428 -460 0
-428 -461 0
-428 -462 0
-428 -463 0
-428 -464 0
-428 -465 0
-428 -466 0
-428 -467 0
-428 -468 0
-428 -469 0
-428 -470 0
-428 -471 0
-428 -472 0
-428 -473 0
-428 -474 0
-428 -475 0
-428 -476 0
-428 -477 0
-428 -478 0
-428 -479 0
-428 -480 0
-428 -481 0
-428 -482 0
-428 -483 0
-428 -484 0
-428 -485 0
-428 -486 0
-428 -487 0
-428 -488 0
-428 -489 0
-428 -490 0
-428 -491 0
-428 -492 0
-428 -493 0
-428 -494 0
-428 -495 0
-428 -496 0
-429 -430 0
-429 -431 0
-429 -432 0
-429 -433 0
-429 -434 0
-429 -435 0
-429 -436 0
-429 -437 0
-429 -438 0
-429 -439 0
-429 -440 0
-429 -441 0
-429 -442 0
-429 -443 0
-429 -444 0
-429 -445 0
-429 -446 0
-429 -447 0
-429 -448 0
-429 -449 0
-429 -450 0
-429 -451 0
-429 -452 0
-429 -453 0
-429 -454 0
-429 -455 0
-429 -456 0
-429 -457 0
-429 -458 0
-429 -459 0
-429 -460 0
-429 -461 0
-429 -462 0
-429 -463 0
-429 -464 0
-429 -465 0
-429 -466 0
-429 -467 0
-429 -468 0
-429 -469 0
-429 -470 0
-429 -471 0
-429 -472 0
-429 -473 0
-429 -474 0
-429 -475 0
-429 -476 0
-429 -477 0
-429 -478 0
-429 -479 0
-429 -480 0
-429 -481 0
-429 -482 0
-429 -483 0
-429 -484 0
-429 -485 0
-429 -486 0
-429 -487 0
-429 -488 0
-429 -489 0
-429 -490 0
-429 -491 0
-429 -492 0
-429 -493 0
-429 -494 0
-429 -495 0
-429 -496 0
-430 -431 0
-430 -432 0
-430 -433 0
-430 -434 0
-430 -435 0
-430 -436 0
-430 -437 0
-430 -438 0
-430 -439 0
-430 -440 0
-430 -441 0
-430 -442 0
-430 -443 0
-430 -444 0
-430 -445 0
-430 -446 0
-430 -447 0
-430 -448 0
-430 -449 0
-430 -450 0
-430 -451 0
-430 -452 0
-430 -453 0
-430 -454 0
-430 -455 0
-430 -456 0
-430 -457 0
-430 -458 0
-430 -459 0
-430 -460 0
-430 -461 0
-430 -462 0
-430 -463 0
-430 -464 0
-430 -465 0
-430 -466 0
-430 -467 0
-430 -468 0
-430 -469 0
-430 -470 0
-430 -471 0
-430 -472 0
-430 -473 0
-430 -474 0
-430 -475 0
-430 -476 0
-430 -477 0
-430 -478 0
-430 -479 0
-430 -480 0
-430 -481 0
-430 -482 0
-430 -483 0
-430 -484 0
-430 -485 0
-430 -486 0
-430 -487 0
-430 -488 0
-430 -489 0
-430 -490 0
-430 -491 0
-430 -492 0
-430 -493 0
-430 -494 0
-430 -495 0
-430 -496 0
-431 -432 0
-431 -433 0
-431 -434 0
-431 -435 0
-431 -436 0
-431 -437 0
-431 -438 0
-431 -439 0
-431 -440 0
-431 -441 0
-431 -442 0
-431 -443 0
-431 -444 0
-431 -445 0
-431 -446 0
-431 -447 0
-431 -448 0
-431 -449 0
-431 -450 0
-431 -451 0
-431 -452 0
-431 -453 0
-431 -454 0
-431 -455 0
-431 -456 0
-431 -457 0
-431 -458 0
-431 -459 0
-431 -460 0
-431 -461 0
-431 -462 0
-431 -463 0
-431 -464 0
-431 -465 0
-431 -466 0
-431 -467 0
-431 -468 0
-431 -469 0
-431 -470 0
-431 -471 0
-431 -472 0
-431 -473 0
-431 -474 0
-431 -475 0
-431 -476 0
-431 -477 0
-431 -478 0
-431 -479 0
-431 -480 0
-431 -481 0
-431 -482 0
-431 -483 0
-431 -484 0
-431 -485 0
-431 -486 0
-431 -487 0
-431 -488 0
-431 -489 0
-431 -490 0
-431 -491 0
-431 -492 0
-431 -493 0
-431 -494 0
-431 -495 0
-431 -496 0
-432 -433 0
-432 -434 0
-432 -435 0
-432 -436 0
-432 -437 0
-432 -438 0
-432 -439 0
-432 -440 0
-432 -441 0
-432 -442 0
-432 -443 0
-432 -444 0
-432 -445 0
-432 -446 0
-432 -447 0
-432 -448 0
-432 -449 0
-432 -450 0
-432 -451 0
-432 -452 0
-432 -453 0
-432 -454 0
-432 -455 0
-432 -456 0
-432 -457 0
-432 -458 0
-432 -459 0
-432 -460 0
-432 -461 0
-432 -462 0
-432 -463 0
-432 -464 0
-432 -465 0
-432 -466 0
-432 -467 0
-432 -468 0
-432 -469 0
-432 -470 0
-432 -471 0
-432 -472 0
-432 -473 0
-432 -474 0
-432 -475 0
-432 -476 0
-432 -477 0
-432 -478 0
-432 -479 0
-432 -480 0
-432 -481 0
-432 -482 0
-432 -483 0
-432 -484 0
-432 -485 0
-432 -486 0
-432 -487 0
-432 -488 0
-432 -489 0
-432 -490 0
-432 -491 0
-432 -492 0
-432 -493 0
-432 -494 0
-432 -495 0
-432 -496 0
-433 -434 0
-433 -435 0
-433 -436 0
-433 -437 0
-433 -438 0
-433 -439 0
-433 -440 0
-433 -441 0
-433 -442 0
-433 -443 0
-433 -444 0
-433 -445 0
-433 -446 0
-433 -447 0
-433 -448 0
-433 -449 0
-433 -450 0
-433 -451 0
-433 -452 0
-433 -453 0
-433 -454 0
-433 -455 0
-433 -456 0
-433 -457 0
-433 -458 0
-433 -459 0
-433 -460 0
-433 -461 0
-433 -462 0
-433 -463 0
-433 -464 0
-433 -465 0
-433 -466 0
-433 -467 0
-433 -468 0
-433 -469 0
-433 -470 0
-433 -471 0
-433 -472 0
-433 -473 0
-433 -474 0
-433 -475 0
-433 -476 0
-433 -477 0
-433 -478 0
-433 -479 0
-433 -480 0
-433 -481 0
-433 -482 0
-433 -483 0
-433 -484 0
-433 -485 0
-433 -486 0
-433 -487 0
-433 -488 0
-433 -489 0
-433 -490 0
-433 -491 0
-433 -492 0
-433 -493 0
-433 -494 0
-433 -495 0
-433 -496 0
-434 -435 0
-434 -436 0
-434 -437 0
-434 -438 0
-434 -439 0
-434 -440 0
-434 -441 0
-434 -442 0
-434 -443 0
-434 -444 0
-434 -445 0
-434 -446 0
-434 -447 0
-434 -448 0
-434 -449 0
-434 -450 0
-434 -451 0
-434 -452 0
-434 -453 0
-434 -454 0
-434 -455 0
-434 -456 0
-434 -457 0
-434 -458 0
-434 -459 0
-434 -460 0
-434 -461 0
-434 -462 0
-434 -463 0
-434 -464 0
-434 -465 0
-434 -466 0
-434 -467 0
-434 -468 0
-434 -469 0
-434 -470 0
-434 -471 0
-434 -472 0
-434 -473 0
-434 -474 0
-434 -475 0
-434 -476 0
-434 -477 0
-434 -478 0
-434 -479 0
-434 -480 0
-434 -481 0
-434 -482 0
-434 -483 0
-434 -484 0
-434 -485 0
-434 -486 0
-434 -487 0
-434 -488 0
-434 -489 0
-434 -490 0
-434 -491 0
-434 -492 0
-434 -493 0
-434 -494 0
-434 -495 0
-434 -496 0
-435 -436 0
-435 -437 0
-435 -438 0
-435 -439 0
-435 -440 0
-435 -441 0
-435 -442 0
-435 -443 0
-435 -444 0
-435 -445 0
-435 -446 0
-435 -447 0
-435 -448 0
-435 -449 0
-435 -450 0
-435 -451 0
-435 -452 0
-435 -453 0
-435 -454 0
-435 -455 0
-435 -456 0
-435 -457 0
-435 -458 0
-435 -459 0
-435 -460 0
-435 -461 0
-435 -462 0
-435 -463 0
-435 -464 0
-435 -465 0
-435 -466 0
-435 -467 0
-435 -468 0
-435 -469 0
-435 -470 0
-435 -471 0
-435 -472 0
-435 -473 0
-435 -474 0
-435 -475 0
-435 -476 0
-435 -477 0
-435 -478 0
-435 -479 0
-435 -480 0
-435 -481 0
-435 -482 0
-435 -483 0
-435 -484 0
-435 -485 0
-435 -486 0
-435 -487 0
-435 -488 0
-435 -489 0
-435 -490 0
-435 -491 0
-435 -492 0
-435 -493 0
-435 -494 0
-435 -495 0
-435 -496 0
-436 -437 0
-436 -438 0
-436 -439 0
-436 -440 0
-436 -441 0
-436 -442 0
-436 -443 0
-436 -444 0
-436 -445 0
-436 -446 0
-436 -447 0
-436 -448 0
-436 -449 0
-436 -450 0
-436 -451 0
-436 -452 0
-436 -453 0
-436 -454 0
-436 -455 0
-436 -456 0
-436 -457 0
-436 -458 0
-436 -459 0
-436 -460 0
-436 -461 0
-436 -462 0
-436 -463 0
-436 -464 0
-436 -465 0
-436 -466 0
-436 -467 0
-436 -468 0
-436 -469 0
-436 -470 0
-436 -471 0
-436 -472 0
-436 -473 0
-436 -474 0
-436 -475 0
-436 -476 0
-436 -477 0
-436 -478 0
-436 -479 0
-436 -480 0
-436 -481 0
-436 -482 0
-436 -483 0
-436 -484 0
-436 -485 0
-436 -486 0
-436 -487 0
-436 -488 0
-436 -489 0
-436 -490 0
-436 -491 0
-436 -492 0
-436 -493 0
-436 -494 0
-436 -495 0
-436 -496 0
-437 -438 0
-437 -439 0
-437 -440 0
-437 -441 0
-437 -442 0
-437 -443 0
-437 -444 0
-437 -445 0
-437 -446 0
-437 -447 0
-437 -448 0
-437 -449 0
-437 -450 0
-437 -451 0
-437 -452 0
-437 -453 0
-437 -454 0
-437 -455 0
-437 -456 0
-437 -457 0
-437 -458 0
-437 -459 0
-437 -460 0
-437 -461 0
-437 -462 0
-437 -463 0
-437 -464 0
-437 -465 0
-437 -466 0
-437 -467 0
-437 -468 0
-437 -469 0
-437 -470 0
-437 -471 0
-437 -472 0
-437 -473 0
-437 -474 0
-437 -475 0
-437 -476 0
-437 -477 0
-437 -478 0
-437 -479 0
-437 -480 0
-437 -481 0
-437 -482 0
-437 -483 0
-437 -484 0
-437 -485 0
-437 -486 0
-437 -487 0
-437 -488 0
-437 -489 0
-437 -490 0
-437 -491 0
-437 -492 0
-437 -493 0
-437 -494 0
-437 -495 0
-437 -496 0
-438 -439 0
-438 -440 0
-438 -441 0
-438 -442 0
-438 -443 0
-438 -444 0
-438 -445 0
-438 -446 0
-438 -447 0
-438 -448 0
-438 -449 0
-438 -450 0
-438 -451 0
-438 -452 0
-438 -453 0
-438 -454 0
-438 -455 0
-438 -456 0
-438 -457 0
-438 -458 0
-438 -459 0
-438 -460 0
-438 -461 0
-438 -462 0
-438 -463 0
-438 -464 0
-438 -465 0
-438 -466 0
-438 -467 0
-438 -468 0
-438 -469 0
-438 -470 0
-438 -471 0
-438 -472 0
-438 -473 0
-438 -474 0
-438 -475 0
-438 -476 0
-438 -477 0
-438 -478 0
-438 -479 0
-438 -480 0
-438 -481 0
-438 -482 0
-438 -483 0
-438 -484 0
-438 -485 0
-438 -486 0
-438 -487 0
-438 -488 0
-438 -489 0
-438 -490 0
-438 -491 0
-438 -492 0
-438 -493 0
-438 -494 0
-438 -495 0
-438 -496 0
-439 -440 0
-439 -441 0
-439 -442 0
-439 -443 0
-439 -444 0
-439 -445 0
-439 -446 0
-439 -447 0
-439 -448 0
-439 -449 0
-439 -450 0
-439 -451 0
-439 -452 0
-439 -453 0
-439 -454 0
-439 -455 0
-439 -456 0
-439 -457 0
-439 -458 0
-439 -459 0
-439 -460 0
-439 -461 0
-439 -462 0
-439 -463 0
-439 -464 0
-439 -465 0
-439 -466 0
-439 -467 0
-439 -468 0
-439 -469 0
-439 -470 0
-439 -471 0
-439 -472 0
-439 -473 0
-439 -474 0
-439 -475 0
-439 -476 0
-439 -477 0
-439 -478 0
-439 -479 0
-439 -480 0
-439 -481 0
-439 -482 0
-439 -483 0
-439 -484 0
-439 -485 0
-439 -486 0
-439 -487 0
-439 -488 0
-439 -489 0
-439 -490 0
-439 -491 0
-439 -492 0
-439 -493 0
-439 -494 0
-439 -495 0
-439 -496 0
-440 -441 0
-440 -442 0
-440 -443 0
-440 -444 0
-440 -445 0
-440 -446 0
-440 -447 0
-440 -448 0
-440 -449 0
-440 -450 0
-440 -451 0
-440 -452 0
-440 -453 0
-440 -454 0
-440 -455 0
-440 -456 0
-440 -457 0
-440 -458 0
-440 -459 0
-440 -460 0
-440 -461 0
-440 -462 0
-440 -463 0
-440 -464 0
-440 -465 0
-440 -466 0
-440 -467 0
-440 -468 0
-440 -469 0
-440 -470 0
-440 -471 0
-440 -472 0
-440 -473 0
-440 -474 0
-440 -475 0
-440 -476 0
-440 -477 0
-440 -478 0
-440 -479 0
-440 -480 0
-440 -481 0
-440 -482 0
-440 -483 0
-440 -484 0
-440 -485 0
-440 -486 0
-440 -487 0
-440 -488 0
-440 -489 0
-440 -490 0
-440 -491 0
-440 -492 0
-440 -493 0
-440 -494 0
-440 -495 0
-440 -496 0
-441 -442 0
-441 -443 0
-441 -444 0
-441 -445 0
-441 -446 0
-441 -447 0
-441 -448 0
-441 -449 0
-441 -450 0
-441 -451 0
-441 -452 0
-441 -453 0
-441 -454 0
-441 -455 0
-441 -456 0
-441 -457 0
-441 -458 0
-441 -459 0
-441 -460 0
-441 -461 0
-441 -462 0
-441 -463 0
-441 -464 0
-441 -465 0
-441 -466 0
-441 -467 0
-441 -468 0
-441 -469 0
-441 -470 0
-441 -471 0
-441 -472 0
-441 -473 0
-441 -474 0
-441 -475 0
-441 -476 0
-441 -477 0
-441 -478 0
-441 -479 0
-441 -480 0
-441 -481 0
-441 -482 0
-441 -483 0
-441 -484 0
-441 -485 0
-441 -486 0
-441 -487 0
-441 -488 0
-441 -489 0
-441 -490 0
-441 -491 0
-441 -492 0
-441 -493 0
-441 -494 0
-441 -495 0
-441 -496 0
-442 -443 0
-442 -444 0
-442 -445 0
-442 -446 0
-442 -447 0
-442 -448 0
-442 -449 0
-442 -450 0
-442 -451 0
-442 -452 0
-442 -453 0
-442 -454 0
-442 -455 0
-442 -456 0
-442 -457 0
-442 -458 0
-442 -459 0
-442 -460 0
-442 -461 0
-442 -462 0
-442 -463 0
-442 -464 0
-442 -465 0
-442 -466 0
-442 -467 0
-442 -468 0
-442 -469 0
-442 -470 0
-442 -471 0
-442 -472 0
-442 -473 0
-442 -474 0
-442 -475 0
-442 -476 0
-442 -477 0
-442 -478 0
-442 -479 0
-442 -480 0
-442 -481 0
-442 -482 0
-442 -483 0
-442 -484 0
-442 -485 0
-442 -486 0
-442 -487 0
-442 -488 0
-442 -489 0
-442 -490 0
-442 -491 0
-442 -492 0
-442 -493 0
-442 -494 0
-442 -495 0
-442 -496 0
-443 -444 0
-443 -445 0
-443 -446 0
-443 -447 0
-443 -448 0
-443 -449 0
-443 -450 0
-443 -451 0
-443 -452 0
-443 -453 0
-443 -454 0
-443 -455 0
-443 -456 0
-443 -457 0
-443 -458 0
-443 -459 0
-443 -460 0
-443 -461 0
-443 -462 0
-443 -463 0
-443 -464 0
-443 -465 0
-443 -466 0
-443 -467 0
-443 -468 0
-443 -469 0
-443 -470 0
-443 -471 0
-443 -472 0
-443 -473 0
-443 -474 0
-443 -475 0
-443 -476 0
-443 -477 0
-443 -478 0
-443 -479 0
-443 -480 0
-443 -481 0
-443 -482 0
-443 -483 0
-443 -484 0
-443 -485 0
-443 -486 0
-443 -487 0
-443 -488 0
-443 -489 0
-443 -490 0
-443 -491 0
-443 -492 0
-443 -493 0
-443 -494 0
-443 -495 0
-443 -496 0
-444 -445 0
-444 -446 0
-444 -447 0
-444 -448 0
-444 -449 0
-444 -450 0
-444 -451 0
-444 -452 0
-444 -453 0
-444 -454 0
-444 -455 0
-444 -456 0
-444 -457 0
-444 -458 0
-444 -459 0
-444 -460 0
-444 -461 0
-444 -462 0
-444 -463 0
-444 -464 0
-444 -465 0
-444 -466 0
-444 -467 0
-444 -468 0
-444 -469 0
-444 -470 0
-444 -471 0
-444 -472 0
-444 -473 0
-444 -474 0
-444 -475 0
-444 -476 0
-444 -477 0
-444 -478 0
-444 -479 0
-444 -480 0
-444 -481 0
-444 -482 0
-444 -483 0
-444 -484 0
-444 -485 0
-444 -486 0
-444 -487 0
-444 -488 0
-444 -489 0
-444 -490 0
-444 -491 0
-444 -492 0
-444 -493 0
-444 -494 0
-444 -495 0
-444 -496 0
-445 -446 0
-445 -447 0
-445 -448 0
-445 -449 0
-445 -450 0
-445 -451 0
-445 -452 0
-445 -453 0
-445 -454 0
-445 -455 0
-445 -456 0
-445 -457 0
-445 -458 0
-445 -459 0
-445 -460 0
-445 -461 0
-445 -462 0
-445 -463 0
-445 -464 0
-445 -465 0
-445 -466 0
-445 -467 0
-445 -468 0
-445 -469 0
-445 -470 0
-445 -471 0
-445 -472 0
-445 -473 0
-445 -474 0
-445 -475 0
-445 -476 0
-445 -477 0
-445 -478 0
-445 -479 0
-445 -480 0
-445 -481 0
-445 -482 0
-445 -483 0
-445 -484 0
-445 -485 0
-445 -486 0
-445 -487 0
-445 -488 0
-445 -489 0
-445 -490 0
-445 -491 0
-445 -492 0
-445 -493 0
-445 -494 0
-445 -495 0
-445 -496 0
-446 -447 0
-446 -448 0
-446 -449 0
-446 -450 0
-446 -451 0
-446 -452 0
-446 -453 0
-446 -454 0
-446 -455 0
-446 -456 0
-446 -457 0
-446 -458 0
-446 -459 0
-446 -460 0
-446 -461 0
-446 -462 0
-446 -463 0
-446 -464 0
-446 -465 0
-446 -466 0
-446 -467 0
-446 -468 0
-446 -469 0
-446 -470 0
-446 -471 0
-446 -472 0
-446 -473 0
-446 -474 0
-446 -475 0
-446 -476 0
-446 -477 0
-446 -478 0
-446 -479 0
-446 -480 0
-446 -481 0
-446 -482 0
-446 -483 0
-446 -484 0
-446 -485 0
-446 -486 0
-446 -487 0
-446 -488 0
-446 -489 0
-446 -490 0
-446 -491 0
-446 -492 0
-446 -493 0
-446 -494 0
-446 -495 0
-446 -496 0
-447 -448 0
-447 -449 0
-447 -450 0
-447 -451 0
-447 -452 0
-447 -453 0
-447 -454 0
-447 -455 0
-447 -456 0
-447 -457 0
-447 -458 0
-447 -459 0
-447 -460 0
-447 -461 0
-447 -462 0
-447 -463 0
-447 -464 0
-447 -465 0
-447 -466 0
-447 -467 0
-447 -468 0
-447 -469 0
-447 -470 0
-447 -471 0
-447 -472 0
-447 -473 0
-447 -474 0
-447 -475 0
-447 -476 0
-447 -477 0
-447 -478 0
-447 -479 0
-447 -480 0
-447 -481 0
-447 -482 0
-447 -483 0
-447 -484 0
-447 -485 0
-447 -486 0
-447 -487 0
-447 -488 0
-447 -489 0
-447 -490 0
-447 -491 0
-447 -492 0
-447 -493 0
-447 -494 0
-447 -495 0
-447 -496 0
-448 -449 0
-448 -450 0
-448 -451 0
-448 -452 0
-448 -453 0
-448 -454 0
-448 -455 0
-448 -456 0
-448 -457 0
-448 -458 0
-448 -459 0
-448 -460 0
-448 -461 0
-448 -462 0
-448 -463 0
-448 -464 0
-448 -465 0
-448 -466 0
-448 -467 0
-448 -468 0
-448 -469 0
-448 -470 0
-448 -471 0
-448 -472 0
-448 -473 0
-448 -474 0
-448 -475 0
-448 -476 0
-448 -477 0
-448 -478 0
-448 -479 0
-448 -480 0
-448 -481 0
-448 -482 0
-448 -483 0
-448 -484 0
-448 -485 0
-448 -486 0
-448 -487 0
-448 -488 0
-448 -489 0
-448 -490 0
-448 -491 0
-448 -492 0
-448 -493 0
-448 -494 0
-448 -495 0
-448 -496 0
-449 -450 0
-449 -451 0
-449 -452 0
-449 -453 0
-449 -454 0
-449 -455 0
-449 -456 0
-449 -457 0
-449 -458 0
-449 -459 0
-449 -460 0
-449 -461 0
-449 -462 0
-449 -463 0
-449 -464 0
-449 -465 0
-449 -466 0
-449 -467 0
-449 -468 0
-449 -469 0
-449 -470 0
-449 -471 0
-449 -472 0
-449 -473 0
-449 -474 0
-449 -475 0
-449 -476 0
-449 -477 0
-449 -478 0
-449 -479 0
-449 -480 0
-449 -481 0
-449 -482 0
-449 -483 0
-449 -484 0
-449 -485 0
-449 -486 0
-449 -487 0
-449 -488 0
-449 -489 0
-449 -490 0
-449 -491 0
-449 -492 0
-449 -493 0
-449 -494 0
-449 -495 0
-449 -496 0
-450 -451 0
-450 -452 0
-450 -453 0
-450 -454 0
-450 -455 0
-450 -456 0
-450 -457 0
-450 -458 0
-450 -459 0
-450 -460 0
-450 -461 0
-450 -462 0
-450 -463 0
-450 -464 0
-450 -465 0
-450 -466 0
-450 -467 0
-450 -468 0
-450 -469 0
-450 -470 0
-450 -471 0
-450 -472 0
-450 -473 0
-450 -474 0
-450 -475 0
-450 -476 0
-450 -477 0
-450 -478 0
-450 -479 0
-450 -480 0
-450 -481 0
-450 -482 0
-450 -483 0
-450 -484 0
-450 -485 0
-450 -486 0
-450 -487 0
-450 -488 0
-450 -489 0
-450 -490 0
-450 -491 0
-450 -492 0
-450 -493 0
-450 -494 0
-450 -495 0
-450 -496 0
-451 -452 0
-451 -453 0
-451 -454 0
-451 -455 0
-451 -456 0
-451 -457 0
-451 -458 0
-451 -459 0
-451 -460 0
-451 -461 0
-451 -462 0
-451 -463 0
-451 -464 0
-451 -465 0
-451 -466 0
-451 -467 0
-451 -468 0
-451 -469 0
-451 -470 0
-451 -471 0
-451 -472 0
-451 -473 0
-451 -474 0
-451 -475 0
-451 -476 0
-451 -477 0
-451 -478 0
-451 -479 0
-451 -480 0
-451 -481 0
-451 -482 0
-451 -483 0
-451 -484 0
-451 -485 0
-451 -486 0
-451 -487 0
-451 -488 0
-451 -489 0
-451 -490 0
-451 -491 0
-451 -492 0
-451 -493 0
-451 -494 0
-451 -495 0
-451 -496 0
-452 -453 0
-452 -454 0
-452 -455 0
-452 -456 0
-452 -457 0
-452 -458 0
-452 -459 0
-452 -460 0
-452 -461 0
-452 -462 0
-452 -463 0
-452 -464 0
-452 -465 0
-452 -466 0
-452 -467 0
-452 -468 0
-452 -469 0
-452 -470 0
-452 -471 0
-452 -472 0
-452 -473 0
-452 -474 0
-452 -475 0
-452 -476 0
-452 -477 0
-452 -478 0
-452 -479 0
-452 -480 0
-452 -481 0
-452 -482 0
-452 -483 0
-452 -484 0
-452 -485 0
-452 -486 0
-452 -487 0
-452 -488 0
-452 -489 0
-452 -490 0
-452 -491 0
-452 -492 0
-452 -493 0
-452 -494 0
-452 -495 0
-452 -496 0
-453 -454 0
-453 -455 0
-453 -456 0
-453 -457 0
-453 -458 0
-453 -459 0
-453 -460 0
-453 -461 0
-453 -462 0
-453 -463 0
-453 -464 0
-453 -465 0
-453 -466 0
-453 -467 0
-453 -468 0
-453 -469 0
-453 -470 0
-453 -471 0
-453 -472 0
-453 -473 0
-453 -474 0
-453 -475 0
-453 -476 0
-453 -477 0
-453 -478 0
-453 -479 0
-453 -480 0
-453 -481 0
-453 -482 0
-453 -483 0
-453 -484 0
-453 -485 0
-453 -486 0
-453 -487 0
-453 -488 0
-453 -489 0
-453 -490 0
-453 -491 0
-453 -492 0
-453 -493 0
-453 -494 0
-453 -495 0
-453 -496 0
-454 -455 0
-454 -456 0
-454 -457 0
-454 -458 0
-454 -459 0
-454 -460 0
-454 -461 0
-454 -462 0
-454 -463 0
-454 -464 0
-454 -465 0
-454 -466 0
-454 -467 0
-454 -468 0
-454 -469 0
-454 -470 0
-454 -471 0
-454 -472 0
-454 -473 0
-454 -474 0
-454 -475 0
-454 -476 0
-454 -477 0
-454 -478 0
-454 -479 0
-454 -480 0
-454 -481 0
-454 -482 0
-454 -483 0
-454 -484 0
-454 -485 0
-454 -486 0
-454 -487 0
-454 -488 0
-454 -489 0
-454 -490 0
-454 -491 0
-454 -492 0
-454 -493 0
-454 -494 0
-454 -495 0
-454 -496 0
-455 -456 0
-455 -457 0
-455 -458 0
-455 -459 0
-455 -460 0
-455 -461 0
-455 -462 0
-455 -463 0
-455 -464 0
-455 -465 0
-455 -466 0
-455 -467 0
-455 -468 0
-455 -469 0
-455 -470 0
-455 -471 0
-455 -472 0
-455 -473 0
-455 -474 0
-455 -475 0
-455 -476 0
-455 -477 0
-455 -478 0
-455 -479 0
-455 -480 0
-455 -481 0
-455 -482 0
-455 -483 0
-455 -484 0
-455 -485 0
-455 -486 0
-455 -487 0
-455 -488 0
-455 -489 0
-455 -490 0
-455 -491 0
-455 -492 0
-455 -493 0
-455 -494 0
-455 -495 0
-455 -496 0
-456 -457 0
-456 -458 0
-456 -459 0
-456 -460 0
-456 -461 0
-456 -462 0
-456 -463 0
-456 -464 0
-456 -465 0
-456 -466 0
-456 -467 0
-456 -468 0
-456 -469 0
-456 -470 0
-456 -471 0
-456 -472 0
-456 -473 0
-456 -474 0
-456 -475 0
-456 -476 0
-456 -477 0
-456 -478 0
-456 -479 0
-456 -480 0
-456 -481 0
-456 -482 0
-456 -483 0
-456 -484 0
-456 -485 0
-456 -486 0
-456 -487 0
-456 -488 0
-456 -489 0
-456 -490 0
-456 -491 0
-456 -492 0
-456 -493 0
-456 -494 0
-456 -495 0
-456 -496 0
-457 -458 0
-457 -459 0
-457 -460 0
-457 -461 0
-457 -462 0
-457 -463 0
-457 -464 0
-457 -465 0
-457 -466 0
-457 -467 0
-457 -468 0
-457 -469 0
-457 -470 0
-457 -471 0
-457 -472 0
-457 -473 0
-457 -474 0
-457 -475 0
-457 -476 0
-457 -477 0
-457 -478 0
-457 -479 0
-457 -480 0
-457 -481 0
-457 -482 0
-457 -483 0
-457 -484 0
-457 -485 0
-457 -486 0
-457 -487 0
-457 -488 0
-457 -489 0
-457 -490 0
-457 -491 0
-457 -492 0
-457 -493 0
-457 -494 0
-457 -495 0
-457 -496 0
-458 -459 0
-458 -460 0
-458 -461 0
-458 -462 0
-458 -463 0
-458 -464 0
-458 -465 0
-458 -466 0
-458 -467 0
-458 -468 0
-458 -469 0
-458 -470 0
-458 -471 0
-458 -472 0
-458 -473 0
-458 -474 0
-458 -475 0
-458 -476 0
-458 -477 0
-458 -478 0
-458 -479 0
-458 -480 0
-458 -481 0
-458 -482 0
-458 -483 0
-458 -484 0
-458 -485 0
-458 -486 0
-458 -487 0
-458 -488 0
-458 -489 0
-458 -490 0
-458 -491 0
-458 -492 0
-458 -493 0
-458 -494 0
-458 -495 0
-458 -496 0
-459 -460 0
-459 -461 0
-459 -462 0
-459 -463 0
-459 -464 0
-459 -465 0
-459 -466 0
-459 -467 0
-459 -468 0
-459 -469 0
-459 -470 0
-459 -471 0
-459 -472 0
-459 -473 0
-459 -474 0
-459 -475 0
-459 -476 0
-459 -477 0
-459 -478 0
-459 -479 0
-459 -480 0
-459 -481 0
-459 -482 0
-459 -483 0
-459 -484 0
-459 -485 0
-459 -486 0
-459 -487 0
-459 -488 0
-459 -489 0
-459 -490 0
-459 -491 0
-459 -492 0
-459 -493 0
-459 -494 0
-459 -495 0
-459 -496 0
-460 -461 0
-460 -462 0
-460 -463 0
-460 -464 0
-460 -465 0
-460 -466 0
-460 -467 0
-460 -468 0
-460 -469 0
-460 -470 0
-460 -471 0
-460 -472 0
-460 -473 0
-460 -474 0
-460 -475 0
-460 -476 0
-460 -477 0
-460 -478 0
-460 -479 0
-460 -480 0
-460 -481 0
-460 -482 0
-460 -483 0
-460 -484 0
-460 -485 0
-460 -486 0
-460 -487 0
-460 -488 0
-460 -489 0
-460 -490 0
-460 -491 0
-460 -492 0
-460 -493 0
-460 -494 0
-460 -495 0
-460 -496 0
-461 -462 0
-461 -463 0
-461 -464 0
-461 -465 0
-461 -466 0
-461 -467 0
-461 -468 0
-461 -469 0
-461 -470 0
-461 -471 0
-461 -472 0
-461 -473 0
-461 -474 0
-461 -475 0
-461 -476 0
-461 -477 0
-461 -478 0
-461 -479 0
-461 -480 0
-461 -481 0
-461 -482 0
-461 -483 0
-461 -484 0
-461 -485 0
-461 -486 0
-461 -487 0
-461 -488 0
-461 -489 0
-461 -490 0
-461 -491 0
-461 -492 0
-461 -493 0
-461 -494 0
-461 -495 0
-461 -496 0
-462 -463 0
-462 -464 0
-462 -465 0
-462 -466 0
-462 -467 0
-462 -468 0
-462 -469 0
-462 -470 0
-462 -471 0
-462 -472 0
-462 -473 0
-462 -474 0
-462 -475 0
-462 -476 0
-462 -477 0
-462 -478 0
-462 -479 0
-462 -480 0
-462 -481 0
-462 -482 0
-462 -483 0
-462 -484 0
-462 -485 0
-462 -486 0
-462 -487 0
-462 -488 0
-462 -489 0
-462 -490 0
-462 -491 0
-462 -492 0
-462 -493 0
-462 -494 0
-462 -495 0
-462 -496 0
-463 -464 0
-463 -465 0
-463 -466 0
-463 -467 0
-463 -468 0
-463 -469 0
-463 -470 0
-463 -471 0
-463 -472 0
-463 -473 0
-463 -474 0
-463 -475 0
-463 -476 0
-463 -477 0
-463 -478 0
-463 -479 0
-463 -480 0
-463 -481 0
-463 -482 0
-463 -483 0
-463 -484 0
-463 -485 0
-463 -486 0
-463 -487 0
-463 -488 0
-463 -489 0
-463 -490 0
-463 -491 0
-463 -492 0
-463 -493 0
-463 -494 0
-463 -495 0
-463 -496 0
-464 -465 0
-464 -466 0
-464 -467 0
-464 -468 0
-464 -469 0
-464 -470 0
-464 -471 0
-464 -472 0
-464 -473 0
-464 -474 0
-464 -475 0
-464 -476 0
-464 -477 0
-464 -478 0
-464 -479 0
-464 -480 0
-464 -481 0
-464 -482 0
-464 -483 0
-464 -484 0
-464 -485 0
-464 -486 0
-464 -487 0
-464 -488 0
-464 -489 0
-464 -490 0
-464 -491 0
-464 -492 0
-464 -493 0
-464 -494 0
-464 -495 0
-464 -496 0
-465 -466 0
-465 -467 0
-465 -468 0
-465 -469 0
-465 -470 0
-465 -471 0
-465 -472 0
-465 -473 0
-465 -474 0
-465 -475 0
-465 -476 0
-465 -477 0
-465 -478 0
-465 -479 0
-465 -480 0
-465 -481 0
-465 -482 0
-465 -483 0
-465 -484 0
-465 -485 0
-465 -486 0
-465 -487 0
-465 -488 0
-465 -489 0
-465 -490 0
-465 -491 0
-465 -492 0
-465 -493 0
-465 -494 0
-465 -495 0
-465 -496 0
-466 -467 0
-466 -468 0
-466 -469 0
-466 -470 0
-466 -471 0
-466 -472 0
-466 -473 0
-466 -474 0
-466 -475 0
-466 -476 0
-466 -477 0
-466 -478 0
-466 -479 0
-466 -480 0
-466 -481 0
-466 -482 0
-466 -483 0
-466 -484 0
-466 -485 0
-466 -486 0
-466 -487 0
-466 -488 0
-466 -489 0
-466 -490 0
-466 -491 0
-466 -492 0
-466 -493 0
-466 -494 0
-466 -495 0
-466 -496 0
-467 -468 0
-467 -469 0
-467 -470 0
-467 -471 0
-467 -472 0
-467 -473 0
-467 -474 0
-467 -475 0
-467 -476 0
-467 -477 0
-467 -478 0
-467 -479 0
-467 -480 0
-467 -481 0
-467 -482 0
-467 -483 0
-467 -484 0
-467 -485 0
-467 -486 0
-467 -487 0
-467 -488 0
-467 -489 0
-467 -490 0
-467 -491 0
-467 -492 0
-467 -493 0
-467 -494 0
-467 -495 0
-467 -496 0
-468 -469 0
-468 -470 0
-468 -471 0
-468 -472 0
-468 -473 0
-468 -474 0
-468 -475 0
-468 -476 0
-468 -477 0
-468 -478 0
-468 -479 0
-468 -480 0
-468 -481 0
-468 -482 0
-468 -483 0
-468 -484 0
-468 -485 0
-468 -486 0
-468 -487 0
-468 -488 0
-468 -489 0
-468 -490 0
-468 -491 0
-468 -492 0
-468 -493 0
-468 -494 0
-468 -495 0
-468 -496 0
-469 -470 0
-469 -471 0
-469 -472 0
-469 -473 0
-469 -474 0
-469 -475 0
-469 -476 0
-469 -477 0
-469 -478 0
-469 -479 0
-469 -480 0
-469 -481 0
-469 -482 0
-469 -483 0
-469 -484 0
-469 -485 0
-469 -486 0
-469 -487 0
-469 -488 0
-469 -489 0
-469 -490 0
-469 -491 0
-469 -492 0
-469 -493 0
-469 -494 0
-469 -495 0
-469 -496 0
-470 -471 0
-470 -472 0
-470 -473 0
-470 -474 0
-470 -475 0
-470 -476 0
-470 -477 0
-470 -478 0
-470 -479 0
-470 -480 0
-470 -481 0
-470 -482 0
-470 -483 0
-470 -484 0
-470 -485 0
-470 -486 0
-470 -487 0
-470 -488 0
-470 -489 0
-470 -490 0
-470 -491 0
-470 -492 0
-470 -493 0
-470 -494 0
-470 -495 0
-470 -496 0
-471 -472 0
-471 -473 0
-471 -474 0
-471 -475 0
-471 -476 0
-471 -477 0
-471 -478 0
-471 -479 0
-471 -480 0
-471 -481 0
-471 -482 0
-471 -483 0
-471 -484 0
-471 -485 0
-471 -486 0
-471 -487 0
-471 -488 0
-471 -489 0
-471 -490 0
-471 -491 0
-471 -492 0
-471 -493 0
-471 -494 0
-471 -495 0
-471 -496 0
-472 -473 0
-472 -474 0
-472 -475 0
-472 -476 0
-472 -477 0
-472 -478 0
-472 -479 0
-472 -480 0
-472 -481 0
-472 -482 0
-472 -483 0
-472 -484 0
-472 -485 0
-472 -486 0
-472 -487 0
-472 -488 0
-472 -489 0
-472 -490 0
-472 -491 0
-472 -492 0
-472 -493 0
-472 -494 0
-472 -495 0
-472 -496 0
-473 -474 0
-473 -475 0
-473 -476 0
-473 -477 0
-473 -478 0
-473 -479 0
-473 -480 0
-473 -481 0
-473 -482 0
-473 -483 0
-473 -484 0
-473 -485 0
-473 -486 0
-473 -487 0
-473 -488 0
-473 -489 0
-473 -490 0
-473 -491 0
-473 -492 0
-473 -493 0
-473 -494 0
-473 -495 0
-473 -496 0
-474 -475 0
-474 -476 0
-474 -477 0
-474 -478 0
-474 -479 0
-474 -480 0
-474 -481 0
-474 -482 0
-474 -483 0
-474 -484 0
-474 -485 0
-474 -486 0
-474 -487 0
-474 -488 0
-474 -489 0
-474 -490 0
-474 -491 0
-474 -492 0
-474 -493 0
-474 -494 0
-474 -495 0
-474 -496 0
-475 -476 0
-475 -477 0
-475 -478 0
-475 -479 0
-475 -480 0
-475 -481 0
-475 -482 0
-475 -483 0
-475 -484 0
-475 -485 0
-475 -486 0
-475 -487 0
-475 -488 0
-475 -489 0
-475 -490 0
-475 -491 0
-475 -492 0
-475 -493 0
-475 -494 0
-475 -495 0
-475 -496 0
-476 -477 0
-476 -478 0
-476 -479 0
-476 -480 0
-476 -481 0
-476 -482 0
-476 -483 0
-476 -484 0
-476 -485 0
-476 -486 0
-476 -487 0
-476 -488 0
-476 -489 0
-476 -490 0
-476 -491 0
-476 -492 0
-476 -493 0
-476 -494 0
-476 -495 0
-476 -496 0
-477 -478 0
-477 -479 0
-477 -480 0
-477 -481 0
-477 -482 0
-477 -483 0
-477 -484 0
-477 -485 0
-477 -486 0
-477 -487 0
-477 -488 0
-477 -489 0
-477 -490 0
-477 -491 0
-477 -492 0
-477 -493 0
-477 -494 0
-477 -495 0
-477 -496 0
-478 -479 0
-478 -480 0
-478 -481 0
-478 -482 0
-478 -483 0
-478 -484 0
-478 -485 0
-478 -486 0
-478 -487 0
-478 -488 0
-478 -489 0
-478 -490 0
-478 -491 0
-478 -492 0
-478 -493 0
-478 -494 0
-478 -495 0
-478 -496 0
-479 -480 0
-479 -481 0
-479 -482 0
-479 -483 0
-479 -484 0
-479 -485 0
-479 -486 0
-479 -487 0
-479 -488 0
-479 -489 0
-479 -490 0
-479 -491 0
-479 -492 0
-479 -493 0
-479 -494 0
-479 -495 0
-479 -496 0
-480 -481 0
-480 -482 0
-480 -483 0
-480 -484 0
-480 -485 0
-480 -486 0
-480 -487 0
-480 -488 0
-480 -489 0
-480 -490 0
-480 -491 0
-480 -492 0
-480 -493 0
-480 -494 0
-480 -495 0
-480 -496 0
-481 -482 0
-481 -483 0
-481 -484 0
-481 -485 0
-481 -486 0
-481 -487 0
-481 -488 0
-481 -489 0
-481 -490 0
-481 -491 0
-481 -492 0
-481 -493 0
-481 -494 0
-481 -495 0
-481 -496 0
-482 -483 0
-482 -484 0
-482 -485 0
-482 -486 0
-482 -487 0
-482 -488 0
-482 -489 0
-482 -490 0
-482 -491 0
-482 -492 0
-482 -493 0
-482 -494 0
-482 -495 0
-482 -496 0
-483 -484 0
-483 -485 0
-483 -486 0
-483 -487 0
-483 -488 0
-483 -489 0
-483 -490 0
-483 -491 0
-483 -492 0
-483 -493 0
-483 -494 0
-483 -495 0
-483 -496 0
-484 -485 0
-484 -486 0
-484 -487 0
-484 -488 0
-484 -489 0
-484 -490 0
-484 -491 0
-484 -492 0
-484 -493 0
-484 -494 0
-484 -495 0
-484 -496 0
-485 -486 0
-485 -487 0
-485 -488 0
-485 -489 0
-485 -490 0
-485 -491 0
-485 -492 0
-485 -493 0
-485 -494 0
-485 -495 0
-485 -496 0
-486 -487 0
-486 -488 0
-486 -489 0
-486 -490 0
-486 -491 0
-486 -492 0
-486 -493 0
-486 -494 0
-486 -495 0
-486 -496 0
-487 -488 0
-487 -489 0
-487 -490 0
-487 -491 0
-487 -492 0
-487 -493 0
-487 -494 0
-487 -495 0
-487 -496 0
-488 -489 0
-488 -490 0
-488 -491 0
-488 -492 0
-488 -493 0
-488 -494 0
-488 -495 0
-488 -496 0
-489 -490 0
-489 -491 0
-489 -492 0
-489 -493 0
-489 -494 0
-489 -495 0
-489 -496 0
-490 -491 0
-490 -492 0
-490 -493 0
-490 -494 0
-490 -495 0
-490 -496 0
-491 -492 0
-491 -493 0
-491 -494 0
-491 -495 0
-491 -496 0
-492 -493 0
-492 -494 0
-492 -495 0
-492 -496 0
-493 -494 0
-493 -495 0
-493 -496 0
-494 -495 0
-494 -496 0
-495 -496 0
413 414 415 416 417 418 419 420 421 422 423 424 425 426 427 428 429 430 431 432 433 434 435 436 -50 91 0
413 414 415 416 417 418 419 420 421 422 423 424 425 426 427 428 429 430 431 432 433 434 435 436 -51 92 0
413 414 415 416 417 418 419 420 421 422 423 424 425 426 427 428 429 430 431 432 433 434 435 436 -52 93 0
413 414 415 416 417 418 419 420 421 422 423 424 425 426 427 428 429 430 431 432 433 434 435 436 -53 94 0
413 414 415 416 417 418 419 420 421 422 423 424 425 426 427 428 429 430 431 432 433 434 435 436 -54 95 0
413 414 415 416 417 418 419 420 421 422 423 424 425 426 427 428 429 430 431 432 433 434 435 436 -55 96 0
413 414 415 416 417 418 419 420 421 422 423 424 425 426 427 428 429 430 431 432 433 434 435 436 -56 97 0
413 414 415 416 417 418 419 420 421 422 423 424 425 426 427 428 429 430 431 432 433 434 435 436 -57 98 0
413 414 415 416 417 418 419 420 421 422 423 424 425 426 427 428 429 430 431 432 433 434 435 436 -58 99 0
413 414 415 416 417 418 419 420 421 422 423 424 425 426 427 428 429 430 431 432 433 434 435 436 -59 100 0
437 438 439 440 441 442 443 444 445 446 447 448 449 450 451 452 453 454 455 456 457 458 459 460 -60 101 0
437 438 439 440 441 442 443 444 445 446 447 448 449 450 451 452 453 454 455 456 457 458 459 460 -61 102 0
437 438 439 440 441 442 443 444 445 446 447 448 449 450 451 452 453 454 455 456 457 458 459 460 -62 103 0
437 438 439 440 441 442 443 444 445 446 447 448 449 450 451 452 453 454 455 456 457 458 459 460 -63 104 0
437 438 439 440 441 442 443 444 445 446 447 448 449 450 451 452 453 454 455 456 457 458 459 460 -64 105 0
437 438 439 440 441 442 443 444 445 446 447 448 449 450 451 452 453 454 455 456 457 458 459 460 -65 106 0
437 438 439 440 441 442 443 444 445 446 447 448 449 450 451 452 453 454 455 456 457 458 459 460 -66 107 0
437 438 439 440 441 442 443 444 445 446 447 448 449 450 451 452 453 454 455 456 457 458 459 460 -67 108 0
437 438 439 440 441 442 443 444 445 446 447 448 449 450 451 452 453 454 455 456 457 458 459 460 -68 109 0
437 438 439 440 441 442 443 444 445 446 447 448 449 450 451 452 453 454 455 456 457 458 459 460 -69 110 0
461 462 463 464 465 466 467 468 469 470 471 472 473 474 475 476 477 478 479 480 -70 111 0
461 462 463 464 465 466 467 468 469 470 471 472 473 474 475 476 477 478 479 480 -71 112 0
461 462 463 464 465 466 467 468 469 470 471 472 473 474 475 476 477 478 479 480 -72 113 0
461 462 463 464 465 466 467 468 469 470 471 472 473 474 475 476 477 478 479 480 -73 114 0
461 462 463 464 465 466 467 468 469 470 471 472 473 474 475 476 477 478 479 480 -74 115 0
461 462 463 464 465 466 467 468 469 470 471 472 473 474 475 476 477 478 479 480 -75 116 0
461 462 463 464 465 466 467 468 469 470 471 472 473 474 475 476 477 478 479 480 -76 117 0
461 462 463 464 465 466 467 468 469 470 471 472 473 474 475 476 477 478 479 480 -77 118 0
461 462 463 464 465 466 467 468 469 470 471 472 473 474 475 476 477 478 479 480 -78 119 0
481 482 483 484 485 486 487 488 489 490 491 492 493 494 495 496 -79 120 0
481 482 483 484 485 486 487 488 489 490 491 492 493 494 495 496 -80 121 0
481 482 483 484 485 486 487 488 489 490 491 492 493 494 495 496 -81 122 0
481 482 483 484 485 486 487 488 489 490 491 492 493 494 495 496 -82 123 0
481 482 483 484 485 486 487 488 489 490 491 492 493 494 495 496 -83 124 0
481 482 483 484 485 486 487 488 489 490 491 492 493 494 495 496 -84 125 0
481 482 483 484 485 486 487 488 489 490 491 492 493 494 495 496 -85 126 0
481 482 483 484 485 486 487 488 489 490 491 492 493 494 495 496 -86 127 0
-497 128 0
-497 129 0
-497 -91 0
-497 132 0
-497 -101 -107 139 0
-497 -101 -108 140 0
-497 -101 -109 141 0
-498 128 0
-498 129 0
-498 -92 0
-498 133 0
-498 -102 -107 139 0
-498 -102 -108 140 0
-498 -102 -109 141 0
-499 128 0
-499 129 0
-499 -93 0
-499 134 0
-499 -103 -107 139 0
-499 -103 -108 140 0
-499 -103 -109 141 0
-500 128 0
-500 129 0
-500 -94 0
-500 135 0
-500 -104 -107 139 0
-500 -104 -108 140 0
-500 -104 -109 141 0
-501 128 0
-501 129 0
-501 -95 0
-501 136 0
-501 -105 -107 139 0
-501 -105 -108 140 0
-501 -105 -109 141 0
-502 128 0
-502 129 0
-502 -96 0
-502 137 0
-502 -106 -107 139 0
-502 -106 -108 140 0
-502 -106 -109 141 0
-503 128 0
-503 130 0
-503 -91 0
-503 132 0
-503 -111 -116 139 0
-503 -111 -117 140 0
-503 -111 -118 141 0
-504 128 0
-504 130 0
-504 -92 0
-504 133 0
-504 -111 -116 139 0
-504 -112 -116 139 0
-504 -111 -117 140 0
-504 -112 -117 140 0
-504 -111 -118 141 0
-504 -112 -118 141 0
-505 128 0
-505 130 0
-505 -93 0
-505 134 0
-505 -112 -116 139 0
-505 -113 -116 139 0
-505 -112 -117 140 0
-505 -113 -117 140 0
-505 -112 -118 141 0
-505 -113 -118 141 0
-506 128 0
-506 130 0
-506 -94 0
-506 135 0
-506 -113 -116 139 0
-506 -114 -116 139 0
-506 -113 -117 140 0
-506 -114 -117 140 0
-506 -113 -118 141 0
-506 -114 -118 141 0
-507 128 0
-507 130 0
-507 -95 0
-507 136 0
-507 -114 -116 139 0
-507 -115 -116 139 0
-507 -114 -117 140 0
-507 -115 -117 140 0
-507 -114 -118 141 0
-507 -115 -118 141 0
-508 128 0
-508 130 0
-508 -96 0
-508 137 0
-508 -115 -116 139 0
-508 -115 -117 140 0
-508 -115 -118 141 0
-509 128 0
-509 131 0
-509 -91 0
-509 132 0
-509 -120 -124 139 0
-509 -120 -125 140 0
-509 -120 -126 141 0
-510 128 0
-510 131 0
-510 -92 0
-510 133 0
-510 -120 -124 139 0
-510 -121 -124 139 0
-510 -120 -125 140 0
-510 -121 -125 140 0
-510 -120 -126 141 0
-510 -121 -126 141 0
-511 128 0
-511 131 0
-511 -93 0
-511 134 0
-511 -120 -124 139 0
-511 -121 -124 139 0
-511 -122 -124 139 0
-511 -120 -125 140 0
-511 -121 -125 140 0
-511 -122 -125 140 0
-511 -120 -126 141 0
-511 -121 -126 141 0
-511 -122 -126 141 0
-512 128 0
-512 131 0
-512 -94 0
-512 135 0
-512 -121 -124 139 0
-512 -122 -124 139 0
-512 -123 -124 139 0
-512 -121 -125 140 0
-512 -122 -125 140 0
-512 -123 -125 140 0
-512 -121 -126 141 0
-512 -122 -126 141 0
-512 -123 -126 141 0
-513 128 0
-513 131 0
-513 -95 0
-513 136 0
-513 -122 -124 139 0
-513 -123 -124 139 0
-513 -122 -125 140 0
-513 -123 -125 140 0
-513 -122 -126 141 0
-513 -123 -126 141 0
-514 128 0
-514 131 0
-514 -96 0
-514 137 0
-514 -123 -124 139 0
-514 -123 -125 140 0
-514 -123 -126 141 0
-515 128 0
-515 -91 0
-515 132 0
-515 138 0
-516 128 0
-516 -92 0
-516 133 0
-516 138 0
-517 128 0
-517 -93 0
-517 134 0
-517 138 0
-518 128 0
-518 -94 0
-518 135 0
-518 138 0
-519 128 0
-519 -95 0
-519 136 0
-519 138 0
-520 128 0
-520 -96 0
-520 137 0
-520 138 0
-521 129 0
-521 128 0
-521 -101 0
-521 142 0
-521 -91 -97 149 0
-521 -91 -98 150 0
-521 -91 -99 151 0
-522 129 0
-522 128 0
-522 -102 0
-522 143 0
-522 -92 -97 149 0
-522 -92 -98 150 0
-522 -92 -99 151 0
-523 129 0
-523 128 0
-523 -103 0
-523 144 0
-523 -93 -97 149 0
-523 -93 -98 150 0
-523 -93 -99 151 0
-524 129 0
-524 128 0
-524 -104 0
-524 145 0
-524 -94 -97 149 0
-524 -94 -98 150 0
-524 -94 -99 151 0
-525 129 0
-525 128 0
-525 -105 0
-525 146 0
-525 -95 -97 149 0
-525 -95 -98 150 0
-525 -95 -99 151 0
-526 129 0
-526 128 0
-526 -106 0
-526 147 0
-526 -96 -97 149 0
-526 -96 -98 150 0
-526 -96 -99 151 0
-527 129 0
-527 130 0
-527 -101 0
-527 142 0
-527 -111 -116 149 0
-527 -111 -117 150 0
-527 -111 -118 151 0
-528 129 0
-528 130 0
-528 -102 0
-528 143 0
-528 -111 -116 149 0
-528 -112 -116 149 0
-528 -111 -117 150 0
-528 -112 -117 150 0
-528 -111 -118 151 0
-528 -112 -118 151 0
-529 129 0
-529 130 0
-529 -103 0
-529 144 0
-529 -112 -116 149 0
-529 -113 -116 149 0
-529 -112 -117 150 0
-529 -113 -117 150 0
-529 -112 -118 151 0
-529 -113 -118 151 0
-530 129 0
-530 130 0
-530 -104 0
-530 145 0
-530 -113 -116 149 0
-530 -114 -116 149 0
-530 -113 -117 150 0
-530 -114 -117 150 0
-530 -113 -118 151 0
-530 -114 -118 151 0
-531 129 0
-531 130 0
-531 -105 0
-531 146 0
-531 -114 -116 149 0
-531 -115 -116 149 0
-531 -114 -117 150 0
-531 -115 -117 150 0
-531 -114 -118 151 0
-531 -115 -118 151 0
-532 129 0
-532 130 0
-532 -106 0
-532 147 0
-532 -115 -116 149 0
-532 -115 -117 150 0
-532 -115 -118 151 0
-533 129 0
-533 131 0
-533 -101 0
-533 142 0
-533 -120 -124 149 0
-533 -120 -125 150 0
-533 -120 -126 151 0
-534 129 0
-534 131 0
-534 -102 0
-534 143 0
-534 -120 -124 149 0
-534 -121 -124 149 0
-534 -120 -125 150 0
-534 -121 -125 150 0
-534 -120 -126 151 0
-534 -121 -126 151 0
-535 129 0
-535 131 0
-535 -103 0
-535 144 0
-535 -120 -124 149 0
-535 -121 -124 149 0
-535 -122 -124 149 0
-535 -120 -125 150 0
-535 -121 -125 150 0
-535 -122 -125 150 0
-535 -120 -126 151 0
-535 -121 -126 151 0
-535 -122 -126 151 0
-536 129 0
-536 131 0
-536 -104 0
-536 145 0
-536 -121 -124 149 0
-536 -122 -124 149 0
-536 -123 -124 149 0
-536 -121 -125 150 0
-536 -122 -125 150 0
-536 -123 -125 150 0
-536 -121 -126 151 0
-536 -122 -126 151 0
-536 -123 -126 151 0
-537 129 0
-537 131 0
-537 -105 0
-537 146 0
-537 -122 -124 149 0
-537 -123 -124 149 0
-537 -122 -125 150 0
-537 -123 -125 150 0
-537 -122 -126 151 0
-537 -123 -126 151 0
-538 129 0
-538 131 0
-538 -106 0
-538 147 0
-538 -123 -124 149 0
-538 -123 -125 150 0
-538 -123 -126 151 0
-539 129 0
-539 -101 0
-539 142 0
-539 148 0
-540 129 0
-540 -102 0
-540 143 0
-540 148 0
-541 129 0
-541 -103 0
-541 144 0
-541 148 0
-542 129 0
-542 -104 0
-542 145 0
-542 148 0
-543 129 0
-543 -105 0
-543 146 0
-543 148 0
-544 129 0
-544 -106 0
-544 147 0
-544 148 0
-545 130 0
-545 128 0
-545 -111 0
-545 152 0
-545 -91 -97 158 0
-545 -92 -97 158 0
-545 -91 -98 159 0
-545 -92 -98 159 0
-545 -91 -99 160 0
-545 -92 -99 160 0
-546 130 0
-546 128 0
-546 -112 0
-546 153 0
-546 -92 -97 158 0
-546 -93 -97 158 0
-546 -92 -98 159 0
-546 -93 -98 159 0
-546 -92 -99 160 0
-546 -93 -99 160 0
-547 130 0
-547 128 0
-547 -113 0
-547 154 0
-547 -93 -97 158 0
-547 -94 -97 158 0
-547 -93 -98 159 0
-547 -94 -98 159 0
-547 -93 -99 160 0
-547 -94 -99 160 0
-548 130 0
-548 128 0
-548 -114 0
-548 155 0
-548 -94 -97 158 0
-548 -95 -97 158 0
-548 -94 -98 159 0
-548 -95 -98 159 0
-548 -94 -99 160 0
-548 -95 -99 160 0
-549 130 0
-549 128 0
-549 -115 0
-549 156 0
-549 -95 -97 158 0
-549 -96 -97 158 0
-549 -95 -98 159 0
-549 -96 -98 159 0
-549 -95 -99 160 0
-549 -96 -99 160 0
-550 130 0
-550 129 0
-550 -111 0
-550 152 0
-550 -101 -107 158 0
-550 -102 -107 158 0
-550 -101 -108 159 0
-550 -102 -108 159 0
-550 -101 -109 160 0
-550 -102 -109 160 0
-551 130 0
-551 129 0
-551 -112 0
-551 153 0
-551 -102 -107 158 0
-551 -103 -107 158 0
-551 -102 -108 159 0
-551 -103 -108 159 0
-551 -102 -109 160 0
-551 -103 -109 160 0
-552 130 0
-552 129 0
-552 -113 0
-552 154 0
-552 -103 -107 158 0
-552 -104 -107 158 0
-552 -103 -108 159 0
-552 -104 -108 159 0
-552 -103 -109 160 0
-552 -104 -109 160 0
-553 130 0
-553 129 0
-553 -114 0
-553 155 0
-553 -104 -107 158 0
-553 -105 -107 158 0
-553 -104 -108 159 0
-553 -105 -108 159 0
-553 -104 -109 160 0
-553 -105 -109 160 0
-554 130 0
-554 129 0
-554 -115 0
-554 156 0
-554 -105 -107 158 0
-554 -106 -107 158 0
-554 -105 -108 159 0
-554 -106 -108 159 0
-554 -105 -109 160 0
-554 -106 -109 160 0
-555 130 0
-555 131 0
-555 -111 0
-555 152 0
-555 -120 -124 158 0
-555 -121 -124 158 0
-555 -120 -125 159 0
-555 -121 -125 159 0
-555 -120 -126 160 0
-555 -121 -126 160 0
-556 130 0
-556 131 0
-556 -112 0
-556 153 0
-556 -120 -124 158 0
-556 -121 -124 158 0
-556 -122 -124 158 0
-556 -120 -125 159 0
-556 -121 -125 159 0
-556 -122 -125 159 0
-556 -120 -126 160 0
-556 -121 -126 160 0
-556 -122 -126 160 0
-557 130 0
-557 131 0
-557 -113 0
-557 154 0
-557 -120 -124 158 0
-557 -121 -124 158 0
-557 -122 -124 158 0
-557 -123 -124 158 0
-557 -120 -125 159 0
-557 -121 -125 159 0
-557 -122 -125 159 0
-557 -123 -125 159 0
-557 -120 -126 160 0
-557 -121 -126 160 0
-557 -122 -126 160 0
-557 -123 -126 160 0
-558 130 0
-558 131 0
-558 -114 0
-558 155 0
-558 -121 -124 158 0
-558 -122 -124 158 0
-558 -123 -124 158 0
-558 -121 -125 159 0
-558 -122 -125 159 0
-558 -123 -125 159 0
-558 -121 -126 160 0
-558 -122 -126 160 0
-558 -123 -126 160 0
-559 130 0
-559 131 0
-559 -115 0
-559 156 0
-559 -122 -124 158 0
-559 -123 -124 158 0
-559 -122 -125 159 0
-559 -123 -125 159 0
-559 -122 -126 160 0
-559 -123 -126 160 0
-560 130 0
-560 -111 0
-560 152 0
-560 157 0
-561 130 0
-561 -112 0
-561 153 0
-561 157 0
-562 130 0
-562 -113 0
-562 154 0
-562 157 0
-563 130 0
-563 -114 0
-563 155 0
-563 157 0
-564 130 0
-564 -115 0
-564 156 0
-564 157 0
-565 131 0
-565 128 0
-565 -120 0
-565 161 0
-565 -91 -97 166 0
-565 -92 -97 166 0
-565 -93 -97 166 0
-565 -91 -98 167 0
-565 -92 -98 167 0
-565 -93 -98 167 0
-565 -91 -99 168 0
-565 -92 -99 168 0
-565 -93 -99 168 0
-566 131 0
-566 128 0
-566 -121 0
-566 162 0
-566 -92 -97 166 0
-566 -93 -97 166 0
-566 -94 -97 166 0
-566 -92 -98 167 0
-566 -93 -98 167 0
-566 -94 -98 167 0
-566 -92 -99 168 0
-566 -93 -99 168 0
-566 -94 -99 168 0
-567 131 0
-567 128 0
-567 -122 0
-567 163 0
-567 -93 -97 166 0
-567 -94 -97 166 0
-567 -95 -97 166 0
-567 -93 -98 167 0
-567 -94 -98 167 0
-567 -95 -98 167 0
-567 -93 -99 168 0
-567 -94 -99 168 0
-567 -95 -99 168 0
-568 131 0
-568 128 0
-568 -123 0
-568 164 0
-568 -94 -97 166 0
-568 -95 -97 166 0
-568 -96 -97 166 0
-568 -94 -98 167 0
-568 -95 -98 167 0
-568 -96 -98 167 0
-568 -94 -99 168 0
-568 -95 -99 168 0
-568 -96 -99 168 0
-569 131 0
-569 129 0
-569 -120 0
-569 161 0
-569 -101 -107 166 0
-569 -102 -107 166 0
-569 -103 -107 166 0
-569 -101 -108 167 0
-569 -102 -108 167 0
-569 -103 -108 167 0
-569 -101 -109 168 0
-569 -102 -109 168 0
-569 -103 -109 168 0
-570 131 0
-570 129 0
-570 -121 0
-570 162 0
-570 -102 -107 166 0
-570 -103 -107 166 0
-570 -104 -107 166 0
-570 -102 -108 167 0
-570 -103 -108 167 0
-570 -104 -108 167 0
-570 -102 -109 168 0
-570 -103 -109 168 0
-570 -104 -109 168 0
-571 131 0
-571 129 0
-571 -122 0
-571 163 0
-571 -103 -107 166 0
-571 -104 -107 166 0
-571 -105 -107 166 0
-571 -103 -108 167 0
-571 -104 -108 167 0
-571 -105 -108 167 0
-571 -103 -109 168 0
-571 -104 -109 168 0
-571 -105 -109 168 0
-572 131 0
-572 129 0
-572 -123 0
-572 164 0
-572 -104 -107 166 0
-572 -105 -107 166 0
-572 -106 -107 166 0
-572 -104 -108 167 0
-572 -105 -108 167 0
-572 -106 -108 167 0
-572 -104 -109 168 0
-572 -105 -109 168 0
-572 -106 -109 168 0
-573 131 0
-573 130 0
-573 -120 0
-573 161 0
-573 -111 -116 166 0
-573 -112 -116 166 0
-573 -113 -116 166 0
-573 -111 -117 167 0
-573 -112 -117 167 0
-573 -113 -117 167 0
-573 -111 -118 168 0
-573 -112 -118 168 0
-573 -113 -118 168 0
-574 131 0
-574 130 0
-574 -121 0
-574 162 0
-574 -111 -116 166 0
-574 -112 -116 166 0
-574 -113 -116 166 0
-574 -114 -116 166 0
-574 -111 -117 167 0
-574 -112 -117 167 0
-574 -113 -117 167 0
-574 -114 -117 167 0
-574 -111 -118 168 0
-574 -112 -118 168 0
-574 -113 -118 168 0
-574 -114 -118 168 0
-575 131 0
-575 130 0
-575 -122 0
-575 163 0
-575 -112 -116 166 0
-575 -113 -116 166 0
-575 -114 -116 166 0
-575 -115 -116 166 0
-575 -112 -117 167 0
-575 -113 -117 167 0
-575 -114 -117 167 0
-575 -115 -117 167 0
-575 -112 -118 168 0
-575 -113 -118 168 0
-575 -114 -118 168 0
-575 -115 -118 168 0
-576 131 0
-576 130 0
-576 -123 0
-576 164 0
-576 -113 -116 166 0
-576 -114 -116 166 0
-576 -115 -116 166 0
-576 -113 -117 167 0
-576 -114 -117 167 0
-576 -115 -117 167 0
-576 -113 -118 168 0
-576 -114 -118 168 0
-576 -115 -118 168 0
-577 131 0
-577 -120 0
-577 161 0
-577 165 0
-578 131 0
-578 -121 0
-578 162 0
-578 165 0
-579 131 0
-579 -122 0
-579 163 0
-579 165 0
-580 131 0
-580 -123 0
-580 164 0
-580 165 0
497 498 499 500 501 502 503 504 505 506 507 508 509 510 511 512 513 514 515 516 517 518 519 520 521 522 523 524 525 526 527 528 529 530 531 532 533 534 535 536 537 538 539 540 541 542 543 544 545 546 547 548 549 550 551 552 553 554 555 556 557 558 559 560 561 562 563 564 565 566 567 568 569 570 571 572 573 574 575 576 577 578 579 580 0
-497 -498 0
-497 -499 0
-497 -500 0
-497 -501 0
-497 -502 0
-497 -503 0
-497 -504 0
-497 -505 0
-497 -506 0
-497 -507 0
-497 -508 0
-497 -509 0
-497 -510 0
-497 -511 0
-497 -512 0
-497 -513 0
-497 -514 0
-497 -515 0
-497 -516 0
-497 -517 0
-497 -518 0
-497 -519 0
-497 -520 0
-497 -521 0
-497 -522 0
-497 -523 0
-497 -524 0
-497 -525 0
-497 -526 0
-497 -527 0
-497 -528 0
-497 -529 0
-497 -530 0
-497 -531 0
-497 -532 0
-497 -533 0
-497 -534 0
-497 -535 0
-497 -536 0
-497 -537 0
-497 -538 0
-497 -539 0
-497 -540 0
-497 -541 0
-497 -542 0
-497 -543 0
-497 -544 0
-497 -545 0
-497 -546 0
-497 -547 0
-497 -548 0
-497 -549 0
-497 -550 0
-497 -551 0
-497 -552 0
-497 -553 0
-497 -554 0
-497 -555 0
-497 -556 0
-497 -557 0
-497 -558 0
-497 -559 0
-497 -560 0
-497 -561 0
-497 -562 0
-497 -563 0
-497 -564 0
-497 -565 0
-497 -566 0
-497 -567 0
-497 -568 0
-497 -569 0
-497 -570 0
-497 -571 0
-497 -572 0
-497 -573 0
-497 -574 0
-497 -575 0
-497 -576 0
-497 -577 0
-497 -578 0
-497 -579 0
-497 -580 0
-498 -499 0
-498 -500 0
-498 -501 0
-498 -502 0
-498 -503 0
-498 -504 0
-498 -505 0
-498 -506 0
-498 -507 0
-498 -508 0
-498 -509 0
-498 -510 0
-498 -511 0
-498 -512 0
-498 -513 0
-498 -514 0
-498 -515 0
-498 -516 0
-498 -517 0
-498 -518 0
-498 -519 0
-498 -520 0
-498 -521 0
-498 -522 0
-498 -523 0
-498 -524 0
-498 -525 0
-498 -526 0
-498 -527 0
-498 -528 0
-498 -529 0
-498 -530 0
-498 -531 0
-498 -532 0
-498 -533 0
-498 -534 0
-498 -535 0
-498 -536 0
-498 -537 0
-498 -538 0
-498 -539 0
-498 -540 0
-498 -541 0
-498 -542 0
-498 -543 0
-498 -544 0
-498 -545 0
-498 -546 0
-498 -547 0
-498 -548 0
-498 -549 0
-498 -550 0
-498 -551 0
-498 -552 0
-498 -553 0
-498 -554 0
-498 -555 0
-498 -556 0
-498 -557 0
-498 -558 0
-498 -559 0
-498 -560 0
-498 -561 0
-498 -562 0
-498 -563 0
-498 -564 0
-498 -565 0
-498 -566 0
-498 -567 0
-498 -568 0
-498 -569 0
-498 -570 0
-498 -571 0
-498 -572 0
-498 -573 0
-498 -574 0
-498 -575 0
-498 -576 0
-498 -577 0
-498 -578 0
-498 -579 0
-498 -580 0
-499 -500 0
-499 -501 0
-499 -502 0
-499 -503 0
-499 -504 0
-499 -505 0
-499 -506 0
-499 -507 0
-499 -508 0
-499 -509 0
-499 -510 0
-499 -511 0
-499 -512 0
-499 -513 0
-499 -514 0
-499 -515 0
-499 -516 0
-499 -517 0
-499 -518 0
-499 -519 0
-499 -520 0
-499 -521 0
-499 -522 0
-499 -523 0
-499 -524 0
-499 -525 0
-499 -526 0
-499 -527 0
-499 -528 0
-499 -529 0
-499 -530 0
-499 -531 0
-499 -532 0
-499 -533 0
-499 -534 0
-499 -535 0
-499 -536 0
-499 -537 0
-499 -538 0
-499 -539 0
-499 -540 0
-499 -541 0
-499 -542 0
-499 -543 0
-499 -544 0
-499 -545 0
-499 -546 0
-499 -547 0
-499 -548 0
-499 -549 0
-499 -550 0
-499 -551 0
-499 -552 0
-499 -553 0
-499 -554 0
-499 -555 0
-499 -556 0
-499 -557 0
-499 -558 0
-499 -559 0
-499 -560 0
-499 -561 0
-499 -562 0
-499 -563 0
-499 -564 0
-499 -565 0
-499 -566 0
-499 -567 0
-499 -568 0
-499 -569 0
-499 -570 0
-499 -571 0
-499 -572 0
-499 -573 0
-499 -574 0
-499 -575 0
-499 -576 0
-499 -577 0
-499 -578 0
-499 -579 0
-499 -580 0
-500 -501 0
-500 -502 0
-500 -503 0
-500 -504 0
-500 -505 0
-500 -506 0
-500 -507 0
-500 -508 0
-500 -509 0
-500 -510 0
-500 -511 0
-500 -512 0
-500 -513 0
-500 -514 0
-500 -515 0
-500 -516 0
-500 -517 0
-500 -518 0
-500 -519 0
-500 -520 0
-500 -521 0
-500 -522 0
-500 -523 0
-500 -524 0
-500 -525 0
-500 -526 0
-500 -527 0
-500 -528 0
-500 -529 0
-500 -530 0
-500 -531 0
-500 -532 0
-500 -533 0
-500 -534 0
-500 -535 0
-500 -536 0
-500 -537 0
-500 -538 0
-500 -539 0
-500 -540 0
-500 -541 0
-500 -542 0
-500 -543 0
-500 -544 0
-500 -545 0
-500 -546 0
-500 -547 0
-500 -548 0
-500 -549 0
-500 -550 0
-500 -551 0
-500 -552 0
-500 -553 0
-500 -554 0
-500 -555 0
-500 -556 0
-500 -557 0
-500 -558 0
-500 -559 0
-500 -560 0
-500 -561 0
-500 -562 0
-500 -563 0
-500 -564 0
-500 -565 0
-500 -566 0
-500 -567 0
-500 -568 0
-500 -569 0
-500 -570 0
-500 -571 0
-500 -572 0
-500 -573 0
-500 -574 0
-500 -575 0
-500 -576 0
-500 -577 0
-500 -578 0
-500 -579 0
-500 -580 0
-501 -502 0
-501 -503 0
-501 -504 0
-501 -505 0
-501 -506 0
-501 -507 0
-501 -508 0
-501 -509 0
-501 -510 0
-501 -511 0
-501 -512 0
-501 -513 0
-501 -514 0
-501 -515 0
-501 -516 0
-501 -517 0
-501 -518 0
-501 -519 0
-501 -520 0
-501 -521 0
-501 -522 0
-501 -523 0
-501 -524 0
-501 -525 0
-501 -526 0
-501 -527 0
-501 -528 0
-501 -529 0
-501 -530 0
-501 -531 0
-501 -532 0
-501 -533 0
-501 -534 0
-501 -535 0
-501 -536 0
-501 -537 0
-501 -538 0
-501 -539 0
-501 -540 0
-501 -541 0
-501 -542 0
-501 -543 0
-501 -544 0
-501 -545 0
-501 -546 0
-501 -547 0
-501 -548 0
-501 -549 0
-501 -550 0
-501 -551 0
-501 -552 0
-501 -553 0
-501 -554 0
-501 -555 0
-501 -556 0
-501 -557 0
-501 -558 0
-501 -559 0
-501 -560 0
-501 -561 0
-501 -562 0
-501 -563 0
-501 -564 0
-501 -565 0
-501 -566 0
-501 -567 0
-501 -568 0
-501 -569 0
-501 -570 0
-501 -571 0
-501 -572 0
-501 -573 0
-501 -574 0
-501 -575 0
-501 -576 0
-501 -577 0
-501 -578 0
-501 -579 0
-501 -580 0
-502 -503 0
-502 -504 0
-502 -505 0
-502 -506 0
-502 -507 0
-502 -508 0
-502 -509 0
-502 -510 0
-502 -511 0
-502 -512 0
-502 -513 0
-502 -514 0
-502 -515 0
-502 -516 0
-502 -517 0
-502 -518 0
-502 -519 0
-502 -520 0
-502 -521 0
-502 -522 0
-502 -523 0
-502 -524 0
-502 -525 0
-502 -526 0
-502 -527 0
-502 -528 0
-502 -529 0
-502 -530 0
-502 -531 0
-502 -532 0
-502 -533 0
-502 -534 0
-502 -535 0
-502 -536 0
-502 -537 0
-502 -538 0
-502 -539 0
-502 -540 0
-502 -541 0
-502 -542 0
-502 -543 0
-502 -544 0
-502 -545 0
-502 -546 0
-502 -547 0
-502 -548 0
-502 -549 0
-502 -550 0
-502 -551 0
-502 -552 0
-502 -553 0
-502 -554 0
-502 -555 0
-502 -556 0
-502 -557 0
-502 -558 0
-502 -559 0
-502 -560 0
-502 -561 0
-502 -562 0
-502 -563 0
-502 -564 0
-502 -565 0
-502 -566 0
-502 -567 0
-502 -568 0
-502 -569 0
-502 -570 0
-502 -571 0
-502 -572 0
-502 -573 0
-502 -574 0
-502 -575 0
-502 -576 0
-502 -577 0
-502 -578 0
-502 -579 0
-502 -580 0
-503 -504 0
-503 -505 0
-503 -506 0
-503 -507 0
-503 -508 0
-503 -509 0
-503 -510 0
-503 -511 0
-503 -512 0
-503 -513 0
-503 -514 0
-503 -515 0
-503 -516 0
-503 -517 0
-503 -518 0
-503 -519 0
-503 -520 0
-503 -521 0
-503 -522 0
-503 -523 0
-503 -524 0
-503 -525 0
-503 -526 0
-503 -527 0
-503 -528 0
-503 -529 0
-503 -530 0
-503 -531 0
-503 -532 0
-503 -533 0
-503 -534 0
-503 -535 0
-503 -536 0
-503 -537 0
-503 -538 0
-503 -539 0
-503 -540 0
-503 -541 0
-503 -542 0
-503 -543 0
-503 -544 0
-503 -545 0
-503 -546 0
-503 -547 0
-503 -548 0
-503 -549 0
-503 -550 0
-503 -551 0
-503 -552 0
-503 -553 0
-503 -554 0
-503 -555 0
-503 -556 0
-503 -557 0
-503 -558 0
-503 -559 0
-503 -560 0
-503 -561 0
-503 -562 0
-503 -563 0
-503 -564 0
-503 -565 0
-503 -566 0
-503 -567 0
-503 -568 0
-503 -569 0
-503 -570 0
-503 -571 0
-503 -572 0
-503 -573 0
-503 -574 0
-503 -575 0
-503 -576 0
-503 -577 0
-503 -578 0
-503 -579 0
-503 -580 0
-504 -505 0
-504 -506 0
-504 -507 0
-504 -508 0
-504 -509 0
-504 -510 0
-504 -511 0
-504 -512 0
-504 -513 0
-504 -514 0
-504 -515 0
-504 -516 0
-504 -517 0
-504 -518 0
-504 -519 0
-504 -520 0
-504 -521 0
-504 -522 0
-504 -523 0
-504 -524 0
-504 -525 0
-504 -526 0
-504 -527 0
-504 -528 0
-504 -529 0
-504 -530 0
-504 -531 0
-504 -532 0
-504 -533 0
-504 -534 0
-504 -535 0
-504 -536 0
-504 -537 0
-504 -538 0
-504 -539 0
-504 -540 0
-504 -541 0
-504 -542 0
-504 -543 0
-504 -544 0
-504 -545 0
-504 -546 0
-504 -547 0
-504 -548 0
-504 -549 0
-504 -550 0
-504 -551 0
-504 -552 0
-504 -553 0
-504 -554 0
-504 -555 0
-504 -556 0
-504 -557 0
-504 -558 0
-504 -559 0
-504 -560 0
-504 -561 0
-504 -562 0
-504 -563 0
-504 -564 0
-504 -565 0
-504 -566 0
-504 -567 0
-504 -568 0
-504 -569 0
-504 -570 0
-504 -571 0
-504 -572 0
-504 -573 0
-504 -574 0
-504 -575 0
-504 -576 0
-504 -577 0
-504 -578 0
-504 -579 0
-504 -580 0
-505 -506 0
-505 -507 0
-505 -508 0
-505 -509 0
-505 -510 0
-505 -511 0
-505 -512 0
-505 -513 0
-505 -514 0
-505 -515 0
-505 -516 0
-505 -517 0
-505 -518 0
-505 -519 0
-505 -520 0
-505 -521 0
-505 -522 0
-505 -523 0
-505 -524 0
-505 -525 0
-505 -526 0
-505 -527 0
-505 -528 0
-505 -529 0
-505 -530 0
-505 -531 0
-505 -532 0
-505 -533 0
-505 -534 0
-505 -535 0
-505 -536 0
-505 -537 0
-505 -538 0
-505 -539 0
-505 -540 0
-505 -541 0
-505 -542 0
-505 -543 0
-505 -544 0
-505 -545 0
-505 -546 0
-505 -547 0
-505 -548 0
-505 -549 0
-505 -550 0
-505 -551 0
-505 -552 0
-505 -553 0
-505 -554 0
-505 -555 0
-505 -556 0
-505 -557 0
-505 -558 0
-505 -559 0
-505 -560 0
-505 -561 0
-505 -562 0
-505 -563 0
-505 -564 0
-505 -565 0
-505 -566 0
-505 -567 0
-505 -568 0
-505 -569 0
-505 -570 0
-505 -571 0
-505 -572 0
-505 -573 0
-505 -574 0
-505 -575 0
-505 -576 0
-505 -577 0
-505 -578 0
-505 -579 0
-505 -580 0
-506 -507 0
-506 -508 0
-506 -509 0
-506 -510 0
-506 -511 0
-506 -512 0
-506 -513 0
-506 -514 0
-506 -515 0
-506 -516 0
-506 -517 0
-506 -518 0
-506 -519 0
-506 -520 0
-506 -521 0
-506 -522 0
-506 -523 0
-506 -524 0
-506 -525 0
-506 -526 0
-506 -527 0
-506 -528 0
-506 -529 0
-506 -530 0
-506 -531 0
-506 -532 0
-506 -533 0
-506 -534 0
-506 -535 0
-506 -536 0
-506 -537 0
-506 -538 0
-506 -539 0
-506 -540 0
-506 -541 0
-506 -542 0
-506 -543 0
-506 -544 0
-506 -545 0
-506 -546 0
-506 -547 0
-506 -548 0
-506 -549 0
-506 -550 0
-506 -551 0
-506 -552 0
-506 -553 0
-506 -554 0
-506 -555 0
-506 -556 0
-506 -557 0
-506 -558 0
-506 -559 0
-506 -560 0
-506 -561 0
-506 -562 0
-506 -563 0
-506 -564 0
-506 -565 0
-506 -566 0
-506 -567 0
-506 -568 0
-506 -569 0
-506 -570 0
-506 -571 0
-506 -572 0
-506 -573 0
-506 -574 0
-506 -575 0
-506 -576 0
-506 -577 0
-506 -578 0
-506 -579 0
-506 -580 0
-507 -508 0
-507 -509 0
-507 -510 0
-507 -511 0
-507 -512 0
-507 -513 0
-507 -514 0
-507 -515 0
-507 -516 0
-507 -517 0
-507 -518 0
-507 -519 0
-507 -520 0
-507 -521 0
-507 -522 0
-507 -523 0
-507 -524 0
-507 -525 0
-507 -526 0
-507 -527 0
-507 -528 0
-507 -529 0
-507 -530 0
-507 -531 0
-507 -532 0
-507 -533 0
-507 -534 0
-507 -535 0
-507 -536 0
-507 -537 0
-507 -538 0
-507 -539 0
-507 -540 0
-507 -541 0
-507 -542 0
-507 -543 0
-507 -544 0
-507 -545 0
-507 -546 0
-507 -547 0
-507 -548 0
-507 -549 0
-507 -550 0
-507 -551 0
-507 -552 0
-507 -553 0
-507 -554 0
-507 -555 0
-507 -556 0
-507 -557 0
-507 -558 0
-507 -559 0
-507 -560 0
-507 -561 0
-507 -562 0
-507 -563 0
-507 -564 0
-507 -565 0
-507 -566 0
-507 -567 0
-507 -568 0
-507 -569 0
-507 -570 0
-507 -571 0
-507 -572 0
-507 -573 0
-507 -574 0
-507 -575 0
-507 -576 0
-507 -577 0
-507 -578 0
-507 -579 0
-507 -580 0
-508 -509 0
-508 -510 0
-508 -511 0
-508 -512 0
-508 -513 0
-508 -514 0
-508 -515 0
-508 -516 0
-508 -517 0
-508 -518 0
-508 -519 0
-508 -520 0
-508 -521 0
-508 -522 0
-508 -523 0
-508 -524 0
-508 -525 0
-508 -526 0
-508 -527 0
-508 -528 0
-508 -529 0
-508 -530 0
-508 -531 0
-508 -532 0
-508 -533 0
-508 -534 0
-508 -535 0
-508 -536 0
-508 -537 0
-508 -538 0
-508 -539 0
-508 -540 0
-508 -541 0
-508 -542 0
-508 -543 0
-508 -544 0
-508 -545 0
-508 -546 0
-508 -547 0
-508 -548 0
-508 -549 0
-508 -550 0
-508 -551 0
-508 -552 0
-508 -553 0
-508 -554 0
-508 -555 0
-508 -556 0
-508 -557 0
-508 -558 0
-508 -559 0
-508 -560 0
-508 -561 0
-508 -562 0
-508 -563 0
-508 -564 0
-508 -565 0
-508 -566 0
-508 -567 0
-508 -568 0
-508 -569 0
-508 -570 0
-508 -571 0
-508 -572 0
-508 -573 0
-508 -574 0
-508 -575 0
-508 -576 0
-508 -577 0
-508 -578 0
-508 -579 0
-508 -580 0
-509 -510 0
-509 -511 0
-509 -512 0
-509 -513 0
-509 -514 0
-509 -515 0
-509 -516 0
-509 -517 0
-509 -518 0
-509 -519 0
-509 -520 0
-509 -521 0
-509 -522 0
-509 -523 0
-509 -524 0
-509 -525 0
-509 -526 0
-509 -527 0
-509 -528 0
-509 -529 0
-509 -530 0
-509 -531 0
-509 -532 0
-509 -533 0
-509 -534 0
-509 -535 0
-509 -536 0
-509 -537 0
-509 -538 0
-509 -539 0
-509 -540 0
-509 -541 0
-509 -542 0
-509 -543 0
-509 -544 0
-509 -545 0
-509 -546 0
-509 -547 0
-509 -548 0
-509 -549 0
-509 -550 0
-509 -551 0
-509 -552 0
-509 -553 0
-509 -554 0
-509 -555 0
-509 -556 0
-509 -557 0
-509 -558 0
-509 -559 0
-509 -560 0
-509 -561 0
-509 -562 0
-509 -563 0
-509 -564 0
-509 -565 0
-509 -566 0
-509 -567 0
-509 -568 0
-509 -569 0
-509 -570 0
-509 -571 0
-509 -572 0
-509 -573 0
-509 -574 0
-509 -575 0
-509 -576 0
-509 -577 0
-509 -578 0
-509 -579 0
-509 -580 0
-510 -511 0
-510 -512 0
-510 -513 0
-510 -514 0
-510 -515 0
-510 -516 0
-510 -517 0
-510 -518 0
-510 -519 0
-510 -520 0
-510 -521 0
-510 -522 0
-510 -523 0
-510 -524 0
-510 -525 0
-510 -526 0
-510 -527 0
-510 -528 0
-510 -529 0
-510 -530 0
-510 -531 0
-510 -532 0
-510 -533 0
-510 -534 0
-510 -535 0
-510 -536 0
-510 -537 0
-510 -538 0
-510 -539 0
-510 -540 0
-510 -541 0
-510 -542 0
-510 -543 0
-510 -544 0
-510 -545 0
-510 -546 0
-510 -547 0
-510 -548 0
-510 -549 0
-510 -550 0
-510 -551 0
-510 -552 0
-510 -553 0
-510 -554 0
-510 -555 0
-510 -556 0
-510 -557 0
-510 -558 0
-510 -559 0
-510 -560 0
-510 -561 0
-510 -562 0
-510 -563 0
-510 -564 0
-510 -565 0
-510 -566 0
-510 -567 0
-510 -568 0
-510 -569 0
-510 -570 0
-510 -571 0
-510 -572 0
-510 -573 0
-510 -574 0
-510 -575 0
-510 -576 0
-510 -577 0
-510 -578 0
-510 -579 0
-510 -580 0
-511 -512 0
-511 -513 0
-511 -514 0
-511 -515 0
-511 -516 0
-511 -517 0
-511 -518 0
-511 -519 0
-511 -520 0
-511 -521 0
-511 -522 0
-511 -523 0
-511 -524 0
-511 -525 0
-511 -526 0
-511 -527 0
-511 -528 0
-511 -529 0
-511 -530 0
-511 -531 0
-511 -532 0
-511 -533 0
-511 -534 0
-511 -535 0
-511 -536 0
-511 -537 0
-511 -538 0
-511 -539 0
-511 -540 0
-511 -541 0
-511 -542 0
-511 -543 0
-511 -544 0
-511 -545 0
-511 -546 0
-511 -547 0
-511 -548 0
-511 -549 0
-511 -550 0
-511 -551 0
-511 -552 0
-511 -553 0
-511 -554 0
-511 -555 0
-511 -556 0
-511 -557 0
-511 -558 0
-511 -559 0
-511 -560 0
-511 -561 0
-511 -562 0
-511 -563 0
-511 -564 0
-511 -565 0
-511 -566 0
-511 -567 0
-511 -568 0
-511 -569 0
-511 -570 0
-511 -571 0
-511 -572 0
-511 -573 0
-511 -574 0
-511 -575 0
-511 -576 0
-511 -577 0
-511 -578 0
-511 -579 0
-511 -580 0
-512 -513 0
-512 -514 0
-512 -515 0
-512 -516 0
-512 -517 0
-512 -518 0
-512 -519 0
-512 -520 0
-512 -521 0
-512 -522 0
-512 -523 0
-512 -524 0
-512 -525 0
-512 -526 0
-512 -527 0
-512 -528 0
-512 -529 0
-512 -530 0
-512 -531 0
-512 -532 0
-512 -533 0
-512 -534 0
-512 -535 0
-512 -536 0
-512 -537 0
-512 -538 0
-512 -539 0
-512 -540 0
-512 -541 0
-512 -542 0
-512 -543 0
-512 -544 0
-512 -545 0
-512 -546 0
-512 -547 0
-512 -548 0
-512 -549 0
-512 -550 0
-512 -551 0
-512 -552 0
-512 -553 0
-512 -554 0
-512 -555 0
-512 -556 0
-512 -557 0
-512 -558 0
-512 -559 0
-512 -560 0
-512 -561 0
-512 -562 0
-512 -563 0
-512 -564 0
-512 -565 0
-512 -566 0
-512 -567 0
-512 -568 0
-512 -569 0
-512 -570 0
-512 -571 0
-512 -572 0
-512 -573 0
-512 -574 0
-512 -575 0
-512 -576 0
-512 -577 0
-512 -578 0
-512 -579 0
-512 -580 0
-513 -514 0
-513 -515 0
-513 -516 0
-513 -517 0
-513 -518 0
-513 -519 0
-513 -520 0
-513 -521 0
-513 -522 0
-513 -523 0
-513 -524 0
-513 -525 0
-513 -526 0
-513 -527 0
-513 -528 0
-513 -529 0
-513 -530 0
-513 -531 0
-513 -532 0
-513 -533 0
-513 -534 0
-513 -535 0
-513 -536 0
-513 -537 0
-513 -538 0
-513 -539 0
-513 -540 0
-513 -541 0
-513 -542 0
-513 -543 0
-513 -544 0
-513 -545 0
-513 -546 0
-513 -547 0
-513 -548 0
-513 -549 0
-513 -550 0
-513 -551 0
-513 -552 0
-513 -553 0
-513 -554 0
-513 -555 0
-513 -556 0
-513 -557 0
-513 -558 0
-513 -559 0
-513 -560 0
-513 -561 0
-513 -562 0
-513 -563 0
-513 -564 0
-513 -565 0
-513 -566 0
-513 -567 0
-513 -568 0
-513 -569 0
-513 -570 0
-513 -571 0
-513 -572 0
-513 -573 0
-513 -574 0
-513 -575 0
-513 -576 0
-513 -577 0
-513 -578 0
-513 -579 0
-513 -580 0
-514 -515 0
-514 -516 0
-514 -517 0
-514 -518 0
-514 -519 0
-514 -520 0
-514 -521 0
-514 -522 0
-514 -523 0
-514 -524 0
-514 -525 0
-514 -526 0
-514 -527 0
-514 -528 0
-514 -529 0
-514 -530 0
-514 -531 0
-514 -532 0
-514 -533 0
-514 -534 0
-514 -535 0
-514 -536 0
-514 -537 0
-514 -538 0
-514 -539 0
-514 -540 0
-514 -541 0
-514 -542 0
-514 -543 0
-514 -544 0
-514 -545 0
-514 -546 0
-514 -547 0
-514 -548 0
-514 -549 0
-514 -550 0
-514 -551 0
-514 -552 0
-514 -553 0
-514 -554 0
-514 -555 0
-514 -556 0
-514 -557 0
-514 -558 0
-514 -559 0
-514 -560 0
-514 -561 0
-514 -562 0
-514 -563 0
-514 -564 0
-514 -565 0
-514 -566 0
-514 -567 0
-514 -568 0
-514 -569 0
-514 -570 0
-514 -571 0
-514 -572 0
-514 -573 0
-514 -574 0
-514 -575 0
-514 -576 0
-514 -577 0
-514 -578 0
-514 -579 0
-514 -580 0
-515 -516 0
-515 -517 0
-515 -518 0
-515 -519 0
-515 -520 0
-515 -521 0
-515 -522 0
-515 -523 0
-515 -524 0
-515 -525 0
-515 -526 0
-515 -527 0
-515 -528 0
-515 -529 0
-515 -530 0
-515 -531 0
-515 -532 0
-515 -533 0
-515 -534 0
-515 -535 0
-515 -536 0
-515 -537 0
-515 -538 0
-515 -539 0
-515 -540 0
-515 -541 0
-515 -542 0
-515 -543 0
-515 -544 0
-515 -545 0
-515 -546 0
-515 -547 0
-515 -548 0
-515 -549 0
-515 -550 0
-515 -551 0
-515 -552 0
-515 -553 0
-515 -554 0
-515 -555 0
-515 -556 0
-515 -557 0
-515 -558 0
-515 -559 0
-515 -560 0
-515 -561 0
-515 -562 0
-515 -563 0
-515 -564 0
-515 -565 0
-515 -566 0
-515 -567 0
-515 -568 0
-515 -569 0
-515 -570 0
-515 -571 0
-515 -572 0
-515 -573 0
-515 -574 0
-515 -575 0
-515 -576 0
-515 -577 0
-515 -578 0
-515 -579 0
-515 -580 0
-516 -517 0
-516 -518 0
-516 -519 0
-516 -520 0
-516 -521 0
-516 -522 0
-516 -523 0
-516 -524 0
-516 -525 0
-516 -526 0
-516 -527 0
-516 -528 0
-516 -529 0
-516 -530 0
-516 -531 0
-516 -532 0
-516 -533 0
-516 -534 0
-516 -535 0
-516 -536 0
-516 -537 0
-516 -538 0
-516 -539 0
-516 -540 0
-516 -541 0
-516 -542 0
-516 -543 0
-516 -544 0
-516 -545 0
-516 -546 0
-516 -547 0
-516 -548 0
-516 -549 0
-516 -550 0
-516 -551 0
-516 -552 0
-516 -553 0
-516 -554 0
-516 -555 0
-516 -556 0
-516 -557 0
-516 -558 0
-516 -559 0
-516 -560 0
-516 -561 0
-516 -562 0
-516 -563 0
-516 -564 0
-516 -565 0
-516 -566 0
-516 -567 0
-516 -568 0
-516 -569 0
-516 -570 0
-516 -571 0
-516 -572 0
-516 -573 0
-516 -574 0
-516 -575 0
-516 -576 0
-516 -577 0
-516 -578 0
-516 -579 0
-516 -580 0
-517 -518 0
-517 -519 0
-517 -520 0
-517 -521 0
-517 -522 0
-517 -523 0
-517 -524 0
-517 -525 0
-517 -526 0
-517 -527 0
-517 -528 0
-517 -529 0
-517 -530 0
-517 -531 0
-517 -532 0
-517 -533 0
-517 -534 0
-517 -535 0
-517 -536 0
-517 -537 0
-517 -538 0
-517 -539 0
-517 -540 0
-517 -541 0
-517 -542 0
-517 -543 0
-517 -544 0
-517 -545 0
-517 -546 0
-517 -547 0
-517 -548 0
-517 -549 0
-517 -550 0
-517 -551 0
-517 -552 0
-517 -553 0
-517 -554 0
-517 -555 0
-517 -556 0
-517 -557 0
-517 -558 0
-517 -559 0
-517 -560 0
-517 -561 0
-517 -562 0
-517 -563 0
-517 -564 0
-517 -565 0
-517 -566 0
-517 -567 0
-517 -568 0
-517 -569 0
-517 -570 0
-517 -571 0
-517 -572 0
-517 -573 0
-517 -574 0
-517 -575 0
-517 -576 0
-517 -577 0
-517 -578 0
-517 -579 0
-517 -580 0
-518 -519 0
-518 -520 0
-518 -521 0
-518 -522 0
-518 -523 0
-518 -524 0
-518 -525 0
-518 -526 0
-518 -527 0
-518 -528 0
-518 -529 0
-518 -530 0
-518 -531 0
-518 -532 0
-518 -533 0
-518 -534 0
-518 -535 0
-518 -536 0
-518 -537 0
-518 -538 0
-518 -539 0
-518 -540 0
-518 -541 0
-518 -542 0
-518 -543 0
-518 -544 0
-518 -545 0
-518 -546 0
-518 -547 0
-518 -548 0
-518 -549 0
-518 -550 0
-518 -551 0
-518 -552 0
-518 -553 0
-518 -554 0
-518 -555 0
-518 -556 0
-518 -557 0
-518 -558 0
-518 -559 0
-518 -560 0
-518 -561 0
-518 -562 0
-518 -563 0
-518 -564 0
-518 -565 0
-518 -566 0
-518 -567 0
-518 -568 0
-518 -569 0
-518 -570 0
-518 -571 0
-518 -572 0
-518 -573 0
-518 -574 0
-518 -575 0
-518 -576 0
-518 -577 0
-518 -578 0
-518 -579 0
-518 -580 0
-519 -520 0
-519 -521 0
-519 -522 0
-519 -523 0
-519 -524 0
-519 -525 0
-519 -526 0
-519 -527 0
-519 -528 0
-519 -529 0
-519 -530 0
-519 -531 0
-519 -532 0
-519 -533 0
-519 -534 0
-519 -535 0
-519 -536 0
-519 -537 0
-519 -538 0
-519 -539 0
-519 -540 0
-519 -541 0
-519 -542 0
-519 -543 0
-519 -544 0
-519 -545 0
-519 -546 0
-519 -547 0
-519 -548 0
-519 -549 0
-519 -550 0
-519 -551 0
-519 -552 0
-519 -553 0
-519 -554 0
-519 -555 0
-519 -556 0
-519 -557 0
-519 -558 0
-519 -559 0
-519 -560 0
-519 -561 0
-519 -562 0
-519 -563 0
-519 -564 0
-519 -565 0
-519 -566 0
-519 -567 0
-519 -568 0
-519 -569 0
-519 -570 0
-519 -571 0
-519 -572 0
-519 -573 0
-519 -574 0
-519 -575 0
-519 -576 0
-519 -577 0
-519 -578 0
-519 -579 0
-519 -580 0
-520 -521 0
-520 -522 0
-520 -523 0
-520 -524 0
-520 -525 0
-520 -526 0
-520 -527 0
-520 -528 0
-520 -529 0
-520 -530 0
-520 -531 0
-520 -532 0
-520 -533 0
-520 -534 0
-520 -535 0
-520 -536 0
-520 -537 0
-520 -538 0
-520 -539 0
-520 -540 0
-520 -541 0
-520 -542 0
-520 -543 0
-520 -544 0
-520 -545 0
-520 -546 0
-520 -547 0
-520 -548 0
-520 -549 0
-520 -550 0
-520 -551 0
-520 -552 0
-520 -553 0
-520 -554 0
-520 -555 0
-520 -556 0
-520 -557 0
-520 -558 0
-520 -559 0
-520 -560 0
-520 -561 0
-520 -562 0
-520 -563 0
-520 -564 0
-520 -565 0
-520 -566 0
-520 -567 0
-520 -568 0
-520 -569 0
-520 -570 0
-520 -571 0
-520 -572 0
-520 -573 0
-520 -574 0
-520 -575 0
-520 -576 0
-520 -577 0
-520 -578 0
-520 -579 0
-520 -580 0
-521 -522 0
-521 -523 0
-521 -524 0
-521 -525 0
-521 -526 0
-521 -527 0
-521 -528 0
-521 -529 0
-521 -530 0
-521 -531 0
-521 -532 0
-521 -533 0
-521 -534 0
-521 -535 0
-521 -536 0
-521 -537 0
-521 -538 0
-521 -539 0
-521 -540 0
-521 -541 0
-521 -542 0
-521 -543 0
-521 -544 0
-521 -545 0
-521 -546 0
-521 -547 0
-521 -548 0
-521 -549 0
-521 -550 0
-521 -551 0
-521 -552 0
-521 -553 0
-521 -554 0
-521 -555 0
-521 -556 0
-521 -557 0
-521 -558 0
-521 -559 0
-521 -560 0
-521 -561 0
-521 -562 0
-521 -563 0
-521 -564 0
-521 -565 0
-521 -566 0
-521 -567 0
-521 -568 0
-521 -569 0
-521 -570 0
-521 -571 0
-521 -572 0
-521 -573 0
-521 -574 0
-521 -575 0
-521 -576 0
-521 -577 0
-521 -578 0
-521 -579 0
-521 -580 0
-522 -523 0
-522 -524 0
-522 -525 0
-522 -526 0
-522 -527 0
-522 -528 0
-522 -529 0
-522 -530 0
-522 -531 0
-522 -532 0
-522 -533 0
-522 -534 0
-522 -535 0
-522 -536 0
-522 -537 0
-522 -538 0
-522 -539 0
-522 -540 0
-522 -541 0
-522 -542 0
-522 -543 0
-522 -544 0
-522 -545 0
-522 -546 0
-522 -547 0
-522 -548 0
-522 -549 0
-522 -550 0
-522 -551 0
-522 -552 0
-522 -553 0
-522 -554 0
-522 -555 0
-522 -556 0
-522 -557 0
-522 -558 0
-522 -559 0
-522 -560 0
-522 -561 0
-522 -562 0
-522 -563 0
-522 -564 0
-522 -565 0
-522 -566 0
-522 -567 0
-522 -568 0
-522 -569 0
-522 -570 0
-522 -571 0
-522 -572 0
-522 -573 0
-522 -574 0
-522 -575 0
-522 -576 0
-522 -577 0
-522 -578 0
-522 -579 0
-522 -580 0
-523 -524 0
-523 -525 0
-523 -526 0
-523 -527 0
-523 -528 0
-523 -529 0
-523 -530 0
-523 -531 0
-523 -532 0
-523 -533 0
-523 -534 0
-523 -535 0
-523 -536 0
-523 -537 0
-523 -538 0
-523 -539 0
-523 -540 0
-523 -541 0
-523 -542 0
-523 -543 0
-523 -544 0
-523 -545 0
-523 -546 0
-523 -547 0
-523 -548 0
-523 -549 0
-523 -550 0
-523 -551 0
-523 -552 0
-523 -553 0
-523 -554 0
-523 -555 0
-523 -556 0
-523 -557 0
-523 -558 0
-523 -559 0
-523 -560 0
-523 -561 0
-523 -562 0
-523 -563 0
-523 -564 0
-523 -565 0
-523 -566 0
-523 -567 0
-523 -568 0
-523 -569 0
-523 -570 0
-523 -571 0
-523 -572 0
-523 -573 0
-523 -574 0
-523 -575 0
-523 -576 0
-523 -577 0
-523 -578 0
-523 -579 0
-523 -580 0
-524 -525 0
-524 -526 0
-524 -527 0
-524 -528 0
-524 -529 0
-524 -530 0
-524 -531 0
-524 -532 0
-524 -533 0
-524 -534 0
-524 -535 0
-524 -536 0
-524 -537 0
-524 -538 0
-524 -539 0
-524 -540 0
-524 -541 0
-524 -542 0
-524 -543 0
-524 -544 0
-524 -545 0
-524 -546 0
-524 -547 0
-524 -548 0
-524 -549 0
-524 -550 0
-524 -551 0
-524 -552 0
-524 -553 0
-524 -554 0
-524 -555 0
-524 -556 0
-524 -557 0
-524 -558 0
-524 -559 0
-524 -560 0
-524 -561 0
-524 -562 0
-524 -563 0
-524 -564 0
-524 -565 0
-524 -566 0
-524 -567 0
-524 -568 0
-524 -569 0
-524 -570 0
-524 -571 0
-524 -572 0
-524 -573 0
-524 -574 0
-524 -575 0
-524 -576 0
-524 -577 0
-524 -578 0
-524 -579 0
-524 -580 0
-525 -526 0
-525 -527 0
-525 -528 0
-525 -529 0
-525 -530 0
-525 -531 0
-525 -532 0
-525 -533 0
-525 -534 0
-525 -535 0
-525 -536 0
-525 -537 0
-525 -538 0
-525 -539 0
-525 -540 0
-525 -541 0
-525 -542 0
-525 -543 0
-525 -544 0
-525 -545 0
-525 -546 0
-525 -547 0
-525 -548 0
-525 -549 0
-525 -550 0
-525 -551 0
-525 -552 0
-525 -553 0
-525 -554 0
-525 -555 0
-525 -556 0
-525 -557 0
-525 -558 0
-525 -559 0
-525 -560 0
-525 -561 0
-525 -562 0
-525 -563 0
-525 -564 0
-525 -565 0
-525 -566 0
-525 -567 0
-525 -568 0
-525 -569 0
-525 -570 0
-525 -571 0
-525 -572 0
-525 -573 0
-525 -574 0
-525 -575 0
-525 -576 0
-525 -577 0
-525 -578 0
-525 -579 0
-525 -580 0
-526 -527 0
-526 -528 0
-526 -529 0
-526 -530 0
-526 -531 0
-526 -532 0
-526 -533 0
-526 -534 0
-526 -535 0
-526 -536 0
-526 -537 0
-526 -538 0
-526 -539 0
-526 -540 0
-526 -541 0
-526 -542 0
-526 -543 0
-526 -544 0
-526 -545 0
-526 -546 0
-526 -547 0
-526 -548 0
-526 -549 0
-526 -550 0
-526 -551 0
-526 -552 0
-526 -553 0
-526 -554 0
-526 -555 0
-526 -556 0
-526 -557 0
-526 -558 0
-526 -559 0
-526 -560 0
-526 -561 0
-526 -562 0
-526 -563 0
-526 -564 0
-526 -565 0
-526 -566 0
-526 -567 0
-526 -568 0
-526 -569 0
-526 -570 0
-526 -571 0
-526 -572 0
-526 -573 0
-526 -574 0
-526 -575 0
-526 -576 0
-526 -577 0
-526 -578 0
-526 -579 0
-526 -580 0
-527 -528 0
-527 -529 0
-527 -530 0
-527 -531 0
-527 -532 0
-527 -533 0
-527 -534 0
-527 -535 0
-527 -536 0
-527 -537 0
-527 -538 0
-527 -539 0
-527 -540 0
-527 -541 0
-527 -542 0
-527 -543 0
-527 -544 0
-527 -545 0
-527 -546 0
-527 -547 0
-527 -548 0
-527 -549 0
-527 -550 0
-527 -551 0
-527 -552 0
-527 -553 0
-527 -554 0
-527 -555 0
-527 -556 0
-527 -557 0
-527 -558 0
-527 -559 0
-527 -560 0
-527 -561 0
-527 -562 0
-527 -563 0
-527 -564 0
-527 -565 0
-527 -566 0
-527 -567 0
-527 -568 0
-527 -569 0
-527 -570 0
-527 -571 0
-527 -572 0
-527 -573 0
-527 -574 0
-527 -575 0
-527 -576 0
-527 -577 0
-527 -578 0
-527 -579 0
-527 -580 0
-528 -529 0
-528 -530 0
-528 -531 0
-528 -532 0
-528 -533 0
-528 -534 0
-528 -535 0
-528 -536 0
-528 -537 0
-528 -538 0
-528 -539 0
-528 -540 0
-528 -541 0
-528 -542 0
-528 -543 0
-528 -544 0
-528 -545 0
-528 -546 0
-528 -547 0
-528 -548 0
-528 -549 0
-528 -550 0
-528 -551 0
-528 -552 0
-528 -553 0
-528 -554 0
-528 -555 0
-528 -556 0
-528 -557 0
-528 -558 0
-528 -559 0
-528 -560 0
-528 -561 0
-528 -562 0
-528 -563 0
-528 -564 0
-528 -565 0
-528 -566 0
-528 -567 0
-528 -568 0
-528 -569 0
-528 -570 0
-528 -571 0
-528 -572 0
-528 -573 0
-528 -574 0
-528 -575 0
-528 -576 0
-528 -577 0
-528 -578 0
-528 -579 0
-528 -580 0
-529 -530 0
-529 -531 0
-529 -532 0
-529 -533 0
-529 -534 0
-529 -535 0
-529 -536 0
-529 -537 0
-529 -538 0
-529 -539 0
-529 -540 0
-529 -541 0
-529 -542 0
-529 -543 0
-529 -544 0
-529 -545 0
-529 -546 0
-529 -547 0
-529 -548 0
-529 -549 0
-529 -550 0
-529 -551 0
-529 -552 0
-529 -553 0
-529 -554 0
-529 -555 0
-529 -556 0
-529 -557 0
-529 -558 0
-529 -559 0
-529 -560 0
-529 -561 0
-529 -562 0
-529 -563 0
-529 -564 0
-529 -565 0
-529 -566 0
-529 -567 0
-529 -568 0
-529 -569 0
-529 -570 0
-529 -571 0
-529 -572 0
-529 -573 0
-529 -574 0
-529 -575 0
-529 -576 0
-529 -577 0
-529 -578 0
-529 -579 0
-529 -580 0
-530 -531 0
-530 -532 0
-530 -533 0
-530 -534 0
-530 -535 0
-530 -536 0
-530 -537 0
-530 -538 0
-530 -539 0
-530 -540 0
-530 -541 0
-530 -542 0
-530 -543 0
-530 -544 0
-530 -545 0
-530 -546 0
-530 -547 0
-530 -548 0
-530 -549 0
-530 -550 0
-530 -551 0
-530 -552 0
-530 -553 0
-530 -554 0
-530 -555 0
-530 -556 0
-530 -557 0
-530 -558 0
-530 -559 0
-530 -560 0
-530 -561 0
-530 -562 0
-530 -563 0
-530 -564 0
-530 -565 0
-530 -566 0
-530 -567 0
-530 -568 0
-530 -569 0
-530 -570 0
-530 -571 0
-530 -572 0
-530 -573 0
-530 -574 0
-530 -575 0
-530 -576 0
-530 -577 0
-530 -578 0
-530 -579 0
-530 -580 0
-531 -532 0
-531 -533 0
-531 -534 0
-531 -535 0
-531 -536 0
-531 -537 0
-531 -538 0
-531 -539 0
-531 -540 0
-531 -541 0
-531 -542 0
-531 -543 0
-531 -544 0
-531 -545 0
-531 -546 0
-531 -547 0
-531 -548 0
-531 -549 0
-531 -550 0
-531 -551 0
-531 -552 0
-531 -553 0
-531 -554 0
-531 -555 0
-531 -556 0
-531 -557 0
-531 -558 0
-531 -559 0
-531 -560 0
-531 -561 0
-531 -562 0
-531 -563 0
-531 -564 0
-531 -565 0
-531 -566 0
-531 -567 0
-531 -568 0
-531 -569 0
-531 -570 0
-531 -571 0
-531 -572 0
-531 -573 0
-531 -574 0
-531 -575 0
-531 -576 0
-531 -577 0
-531 -578 0
-531 -579 0
-531 -580 0
-532 -533 0
-532 -534 0
-532 -535 0
-532 -536 0
-532 -537 0
-532 -538 0
-532 -539 0
-532 -540 0
-532 -541 0
-532 -542 0
-532 -543 0
-532 -544 0
-532 -545 0
-532 -546 0
-532 -547 0
-532 -548 0
-532 -549 0
-532 -550 0
-532 -551 0
-532 -552 0
-532 -553 0
-532 -554 0
-532 -555 0
-532 -556 0
-532 -557 0
-532 -558 0
-532 -559 0
-532 -560 0
-532 -561 0
-532 -562 0
-532 -563 0
-532 -564 0
-532 -565 0
-532 -566 0
-532 -567 0
-532 -568 0
-532 -569 0
-532 -570 0
-532 -571 0
-532 -572 0
-532 -573 0
-532 -574 0
-532 -575 0
-532 -576 0
-532 -577 0
-532 -578 0
-532 -579 0
-532 -580 0
-533 -534 0
-533 -535 0
-533 -536 0
-533 -537 0
-533 -538 0
-533 -539 0
-533 -540 0
-533 -541 0
-533 -542 0
-533 -543 0
-533 -544 0
-533 -545 0
-533 -546 0
-533 -547 0
-533 -548 0
-533 -549 0
-533 -550 0
-533 -551 0
-533 -552 0
-533 -553 0
-533 -554 0
-533 -555 0
-533 -556 0
-533 -557 0
-533 -558 0
-533 -559 0
-533 -560 0
-533 -561 0
-533 -562 0
-533 -563 0
-533 -564 0
-533 -565 0
-533 -566 0
-533 -567 0
-533 -568 0
-533 -569 0
-533 -570 0
-533 -571 0
-533 -572 0
-533 -573 0
-533 -574 0
-533 -575 0
-533 -576 0
-533 -577 0
-533 -578 0
-533 -579 0
-533 -580 0
-534 -535 0
-534 -536 0
-534 -537 0
-534 -538 0
-534 -539 0
-534 -540 0
-534 -541 0
-534 -542 0
-534 -543 0
-534 -544 0
-534 -545 0
-534 -546 0
-534 -547 0
-534 -548 0
-534 -549 0
-534 -550 0
-534 -551 0
-534 -552 0
-534 -553 0
-534 -554 0
-534 -555 0
-534 -556 0
-534 -557 0
-534 -558 0
-534 -559 0
-534 -560 0
-534 -561 0
-534 -562 0
-534 -563 0
-534 -564 0
-534 -565 0
-534 -566 0
-534 -567 0
-534 -568 0
-534 -569 0
-534 -570 0
-534 -571 0
-534 -572 0
-534 -573 0
-534 -574 0
-534 -575 0
-534 -576 0
-534 -577 0
-534 -578 0
-534 -579 0
-534 -580 0
-535 -536 0
-535 -537 0
-535 -538 0
-535 -539 0
-535 -540 0
-535 -541 0
-535 -542 0
-535 -543 0
-535 -544 0
-535 -545 0
-535 -546 0
-535 -547 0
-535 -548 0
-535 -549 0
-535 -550 0
-535 -551 0
-535 -552 0
-535 -553 0
-535 -554 0
-535 -555 0
-535 -556 0
-535 -557 0
-535 -558 0
-535 -559 0
-535 -560 0
-535 -561 0
-535 -562 0
-535 -563 0
-535 -564 0
-535 -565 0
-535 -566 0
-535 -567 0
-535 -568 0
-535 -569 0
-535 -570 0
-535 -571 0
-535 -572 0
-535 -573 0
-535 -574 0
-535 -575 0
-535 -576 0
-535 -577 0
-535 -578 0
-535 -579 0
-535 -580 0
-536 -537 0
-536 -538 0
-536 -539 0
-536 -540 0
-536 -541 0
-536 -542 0
-536 -543 0
-536 -544 0
-536 -545 0
-536 -546 0
-536 -547 0
-536 -548 0
-536 -549 0
-536 -550 0
-536 -551 0
-536 -552 0
-536 -553 0
-536 -554 0
-536 -555 0
-536 -556 0
-536 -557 0
-536 -558 0
-536 -559 0
-536 -560 0
-536 -561 0
-536 -562 0
-536 -563 0
-536 -564 0
-536 -565 0
-536 -566 0
-536 -567 0
-536 -568 0
-536 -569 0
-536 -570 0
-536 -571 0
-536 -572 0
-536 -573 0
-536 -574 0
-536 -575 0
-536 -576 0
-536 -577 0
-536 -578 0
-536 -579 0
-536 -580 0
-537 -538 0
-537 -539 0
-537 -540 0
-537 -541 0
-537 -542 0
-537 -543 0
-537 -544 0
-537 -545 0
-537 -546 0
-537 -547 0
-537 -548 0
-537 -549 0
-537 -550 0
-537 -551 0
-537 -552 0
-537 -553 0
-537 -554 0
-537 -555 0
-537 -556 0
-537 -557 0
-537 -558 0
-537 -559 0
-537 -560 0
-537 -561 0
-537 -562 0
-537 -563 0
-537 -564 0
-537 -565 0
-537 -566 0
-537 -567 0
-537 -568 0
-537 -569 0
-537 -570 0
-537 -571 0
-537 -572 0
-537 -573 0
-537 -574 0
-537 -575 0
-537 -576 0
-537 -577 0
-537 -578 0
-537 -579 0
-537 -580 0
-538 -539 0
-538 -540 0
-538 -541 0
-538 -542 0
-538 -543 0
-538 -544 0
-538 -545 0
-538 -546 0
-538 -547 0
-538 -548 0
-538 -549 0
-538 -550 0
-538 -551 0
-538 -552 0
-538 -553 0
-538 -554 0
-538 -555 0
-538 -556 0
-538 -557 0
-538 -558 0
-538 -559 0
-538 -560 0
-538 -561 0
-538 -562 0
-538 -563 0
-538 -564 0
-538 -565 0
-538 -566 0
-538 -567 0
-538 -568 0
-538 -569 0
-538 -570 0
-538 -571 0
-538 -572 0
-538 -573 0
-538 -574 0
-538 -575 0
-538 -576 0
-538 -577 0
-538 -578 0
-538 -579 0
-538 -580 0
-539 -540 0
-539 -541 0
-539 -542 0
-539 -543 0
-539 -544 0
-539 -545 0
-539 -546 0
-539 -547 0
-539 -548 0
-539 -549 0
-539 -550 0
-539 -551 0
-539 -552 0
-539 -553 0
-539 -554 0
-539 -555 0
-539 -556 0
-539 -557 0
-539 -558 0
-539 -559 0
-539 -560 0
-539 -561 0
-539 -562 0
-539 -563 0
-539 -564 0
-539 -565 0
-539 -566 0
-539 -567 0
-539 -568 0
-539 -569 0
-539 -570 0
-539 -571 0
-539 -572 0
-539 -573 0
-539 -574 0
-539 -575 0
-539 -576 0
-539 -577 0
-539 -578 0
-539 -579 0
-539 -580 0
-540 -541 0
-540 -542 0
-540 -543 0
-540 -544 0
-540 -545 0
-540 -546 0
-540 -547 0
-540 -548 0
-540 -549 0
-540 -550 0
-540 -551 0
-540 -552 0
-540 -553 0
-540 -554 0
-540 -555 0
-540 -556 0
-540 -557 0
-540 -558 0
-540 -559 0
-540 -560 0
-540 -561 0
-540 -562 0
-540 -563 0
-540 -564 0
-540 -565 0
-540 -566 0
-540 -567 0
-540 -568 0
-540 -569 0
-540 -570 0
-540 -571 0
-540 -572 0
-540 -573 0
-540 -574 0
-540 -575 0
-540 -576 0
-540 -577 0
-540 -578 0
-540 -579 0
-540 -580 0
-541 -542 0
-541 -543 0
-541 -544 0
-541 -545 0
-541 -546 0
-541 -547 0
-541 -548 0
-541 -549 0
-541 -550 0
-541 -551 0
-541 -552 0
-541 -553 0
-541 -554 0
-541 -555 0
-541 -556 0
-541 -557 0
-541 -558 0
-541 -559 0
-541 -560 0
-541 -561 0
-541 -562 0
-541 -563 0
-541 -564 0
-541 -565 0
-541 -566 0
-541 -567 0
-541 -568 0
-541 -569 0
-541 -570 0
-541 -571 0
-541 -572 0
-541 -573 0
-541 -574 0
-541 -575 0
-541 -576 0
-541 -577 0
-541 -578 0
-541 -579 0
-541 -580 0
-542 -543 0
-542 -544 0
-542 -545 0
-542 -546 0
-542 -547 0
-542 -548 0
-542 -549 0
-542 -550 0
-542 -551 0
-542 -552 0
-542 -553 0
-542 -554 0
-542 -555 0
-542 -556 0
-542 -557 0
-542 -558 0
-542 -559 0
-542 -560 0
-542 -561 0
-542 -562 0
-542 -563 0
-542 -564 0
-542 -565 0
-542 -566 0
-542 -567 0
-542 -568 0
-542 -569 0
-542 -570 0
-542 -571 0
-542 -572 0
-542 -573 0
-542 -574 0
-542 -575 0
-542 -576 0
-542 -577 0
-542 -578 0
-542 -579 0
-542 -580 0
-543 -544 0
-543 -545 0
-543 -546 0
-543 -547 0
-543 -548 0
-543 -549 0
-543 -550 0
-543 -551 0
-543 -552 0
-543 -553 0
-543 -554 0
-543 -555 0
-543 -556 0
-543 -557 0
-543 -558 0
-543 -559 0
-543 -560 0
-543 -561 0
-543 -562 0
-543 -563 0
-543 -564 0
-543 -565 0
-543 -566 0
-543 -567 0
-543 -568 0
-543 -569 0
-543 -570 0
-543 -571 0
-543 -572 0
-543 -573 0
-543 -574 0
-543 -575 0
-543 -576 0
-543 -577 0
-543 -578 0
-543 -579 0
-543 -580 0
-544 -545 0
-544 -546 0
-544 -547 0
-544 -548 0
-544 -549 0
-544 -550 0
-544 -551 0
-544 -552 0
-544 -553 0
-544 -554 0
-544 -555 0
-544 -556 0
-544 -557 0
-544 -558 0
-544 -559 0
-544 -560 0
-544 -561 0
-544 -562 0
-544 -563 0
-544 -564 0
-544 -565 0
-544 -566 0
-544 -567 0
-544 -568 0
-544 -569 0
-544 -570 0
-544 -571 0
-544 -572 0
-544 -573 0
-544 -574 0
-544 -575 0
-544 -576 0
-544 -577 0
-544 -578 0
-544 -579 0
-544 -580 0
-545 -546 0
-545 -547 0
-545 -548 0
-545 -549 0
-545 -550 0
-545 -551 0
-545 -552 0
-545 -553 0
-545 -554 0
-545 -555 0
-545 -556 0
-545 -557 0
-545 -558 0
-545 -559 0
-545 -560 0
-545 -561 0
-545 -562 0
-545 -563 0
-545 -564 0
-545 -565 0
-545 -566 0
-545 -567 0
-545 -568 0
-545 -569 0
-545 -570 0
-545 -571 0
-545 -572 0
-545 -573 0
-545 -574 0
-545 -575 0
-545 -576 0
-545 -577 0
-545 -578 0
-545 -579 0
-545 -580 0
-546 -547 0
-546 -548 0
-546 -549 0
-546 -550 0
-546 -551 0
-546 -552 0
-546 -553 0
-546 -554 0
-546 -555 0
-546 -556 0
-546 -557 0
-546 -558 0
-546 -559 0
-546 -560 0
-546 -561 0
-546 -562 0
-546 -563 0
-546 -564 0
-546 -565 0
-546 -566 0
-546 -567 0
-546 -568 0
-546 -569 0
-546 -570 0
-546 -571 0
-546 -572 0
-546 -573 0
-546 -574 0
-546 -575 0
-546 -576 0
-546 -577 0
-546 -578 0
-546 -579 0
-546 -580 0
-547 -548 0
-547 -549 0
-547 -550 0
-547 -551 0
-547 -552 0
-547 -553 0
-547 -554 0
-547 -555 0
-547 -556 0
-547 -557 0
-547 -558 0
-547 -559 0
-547 -560 0
-547 -561 0
-547 -562 0
-547 -563 0
-547 -564 0
-547 -565 0
-547 -566 0
-547 -567 0
-547 -568 0
-547 -569 0
-547 -570 0
-547 -571 0
-547 -572 0
-547 -573 0
-547 -574 0
-547 -575 0
-547 -576 0
-547 -577 0
-547 -578 0
-547 -579 0
-547 -580 0
-548 -549 0
-548 -550 0
-548 -551 0
-548 -552 0
-548 -553 0
-548 -554 0
-548 -555 0
-548 -556 0
-548 -557 0
-548 -558 0
-548 -559 0
-548 -560 0
-548 -561 0
-548 -562 0
-548 -563 0
-548 -564 0
-548 -565 0
-548 -566 0
-548 -567 0
-548 -568 0
-548 -569 0
-548 -570 0
-548 -571 0
-548 -572 0
-548 -573 0
-548 -574 0
-548 -575 0
-548 -576 0
-548 -577 0
-548 -578 0
-548 -579 0
-548 -580 0
-549 -550 0
-549 -551 0
-549 -552 0
-549 -553 0
-549 -554 0
-549 -555 0
-549 -556 0
-549 -557 0
-549 -558 0
-549 -559 0
-549 -560 0
-549 -561 0
-549 -562 0
-549 -563 0
-549 -564 0
-549 -565 0
-549 -566 0
-549 -567 0
-549 -568 0
-549 -569 0
-549 -570 0
-549 -571 0
-549 -572 0
-549 -573 0
-549 -574 0
-549 -575 0
-549 -576 0
-549 -577 0
-549 -578 0
-549 -579 0
-549 -580 0
-550 -551 0
-550 -552 0
-550 -553 0
-550 -554 0
-550 -555 0
-550 -556 0
-550 -557 0
-550 -558 0
-550 -559 0
-550 -560 0
-550 -561 0
-550 -562 0
-550 -563 0
-550 -564 0
-550 -565 0
-550 -566 0
-550 -567 0
-550 -568 0
-550 -569 0
-550 -570 0
-550 -571 0
-550 -572 0
-550 -573 0
-550 -574 0
-550 -575 0
-550 -576 0
-550 -577 0
-550 -578 0
-550 -579 0
-550 -580 0
-551 -552 0
-551 -553 0
-551 -554 0
-551 -555 0
-551 -556 0
-551 -557 0
-551 -558 0
-551 -559 0
-551 -560 0
-551 -561 0
-551 -562 0
-551 -563 0
-551 -564 0
-551 -565 0
-551 -566 0
-551 -567 0
-551 -568 0
-551 -569 0
-551 -570 0
-551 -571 0
-551 -572 0
-551 -573 0
-551 -574 0
-551 -575 0
-551 -576 0
-551 -577 0
-551 -578 0
-551 -579 0
-551 -580 0
-552 -553 0
-552 -554 0
-552 -555 0
-552 -556 0
-552 -557 0
-552 -558 0
-552 -559 0
-552 -560 0
-552 -561 0
-552 -562 0
-552 -563 0
-552 -564 0
-552 -565 0
-552 -566 0
-552 -567 0
-552 -568 0
-552 -569 0
-552 -570 0
-552 -571 0
-552 -572 0
-552 -573 0
-552 -574 0
-552 -575 0
-552 -576 0
-552 -577 0
-552 -578 0
-552 -579 0
-552 -580 0
-553 -554 0
-553 -555 0
-553 -556 0
-553 -557 0
-553 -558 0
-553 -559 0
-553 -560 0
-553 -561 0
-553 -562 0
-553 -563 0
-553 -564 0
-553 -565 0
-553 -566 0
-553 -567 0
-553 -568 0
-553 -569 0
-553 -570 0
-553 -571 0
-553 -572 0
-553 -573 0
-553 -574 0
-553 -575 0
-553 -576 0
-553 -577 0
-553 -578 0
-553 -579 0
-553 -580 0
-554 -555 0
-554 -556 0
-554 -557 0
-554 -558 0
-554 -559 0
-554 -560 0
-554 -561 0
-554 -562 0
-554 -563 0
-554 -564 0
-554 -565 0
-554 -566 0
-554 -567 0
-554 -568 0
-554 -569 0
-554 -570 0
-554 -571 0
-554 -572 0
-554 -573 0
-554 -574 0
-554 -575 0
-554 -576 0
-554 -577 0
-554 -578 0
-554 -579 0
-554 -580 0
-555 -556 0
-555 -557 0
-555 -558 0
-555 -559 0
-555 -560 0
-555 -561 0
-555 -562 0
-555 -563 0
-555 -564 0
-555 -565 0
-555 -566 0
-555 -567 0
-555 -568 0
-555 -569 0
-555 -570 0
-555 -571 0
-555 -572 0
-555 -573 0
-555 -574 0
-555 -575 0
-555 -576 0
-555 -577 0
-555 -578 0
-555 -579 0
-555 -580 0
-556 -557 0
-556 -558 0
-556 -559 0
-556 -560 0
-556 -561 0
-556 -562 0
-556 -563 0
-556 -564 0
-556 -565 0
-556 -566 0
-556 -567 0
-556 -568 0
-556 -569 0
-556 -570 0
-556 -571 0
-556 -572 0
-556 -573 0
-556 -574 0
-556 -575 0
-556 -576 0
-556 -577 0
-556 -578 0
-556 -579 0
-556 -580 0
-557 -558 0
-557 -559 0
-557 -560 0
-557 -561 0
-557 -562 0
-557 -563 0
-557 -564 0
-557 -565 0
-557 -566 0
-557 -567 0
-557 -568 0
-557 -569 0
-557 -570 0
-557 -571 0
-557 -572 0
-557 -573 0
-557 -574 0
-557 -575 0
-557 -576 0
-557 -577 0
-557 -578 0
-557 -579 0
-557 -580 0
-558 -559 0
-558 -560 0
-558 -561 0
-558 -562 0
-558 -563 0
-558 -564 0
-558 -565 0
-558 -566 0
-558 -567 0
-558 -568 0
-558 -569 0
-558 -570 0
-558 -571 0
-558 -572 0
-558 -573 0
-558 -574 0
-558 -575 0
-558 -576 0
-558 -577 0
-558 -578 0
-558 -579 0
-558 -580 0
-559 -560 0
-559 -561 0
-559 -562 0
-559 -563 0
-559 -564 0
-559 -565 0
-559 -566 0
-559 -567 0
-559 -568 0
-559 -569 0
-559 -570 0
-559 -571 0
-559 -572 0
-559 -573 0
-559 -574 0
-559 -575 0
-559 -576 0
-559 -577 0
-559 -578 0
-559 -579 0
-559 -580 0
-560 -561 0
-560 -562 0
-560 -563 0
-560 -564 0
-560 -565 0
-560 -566 0
-560 -567 0
-560 -568 0
-560 -569 0
-560 -570 0
-560 -571 0
-560 -572 0
-560 -573 0
-560 -574 0
-560 -575 0
-560 -576 0
-560 -577 0
-560 -578 0
-560 -579 0
-560 -580 0
-561 -562 0
-561 -563 0
-561 -564 0
-561 -565 0
-561 -566 0
-561 -567 0
-561 -568 0
-561 -569 0
-561 -570 0
-561 -571 0
-561 -572 0
-561 -573 0
-561 -574 0
-561 -575 0
-561 -576 0
-561 -577 0
-561 -578 0
-561 -579 0
-561 -580 0
-562 -563 0
-562 -564 0
-562 -565 0
-562 -566 0
-562 -567 0
-562 -568 0
-562 -569 0
-562 -570 0
-562 -571 0
-562 -572 0
-562 -573 0
-562 -574 0
-562 -575 0
-562 -576 0
-562 -577 0
-562 -578 0
-562 -579 0
-562 -580 0
-563 -564 0
-563 -565 0
-563 -566 0
-563 -567 0
-563 -568 0
-563 -569 0
-563 -570 0
-563 -571 0
-563 -572 0
-563 -573 0
-563 -574 0
-563 -575 0
-563 -576 0
-563 -577 0
-563 -578 0
-563 -579 0
-563 -580 0
-564 -565 0
-564 -566 0
-564 -567 0
-564 -568 0
-564 -569 0
-564 -570 0
-564 -571 0
-564 -572 0
-564 -573 0
-564 -574 0
-564 -575 0
-564 -576 0
-564 -577 0
-564 -578 0
-564 -579 0
-564 -580 0
-565 -566 0
-565 -567 0
-565 -568 0
-565 -569 0
-565 -570 0
-565 -571 0
-565 -572 0
-565 -573 0
-565 -574 0
-565 -575 0
-565 -576 0
-565 -577 0
-565 -578 0
-565 -579 0
-565 -580 0
-566 -567 0
-566 -568 0
-566 -569 0
-566 -570 0
-566 -571 0
-566 -572 0
-566 -573 0
-566 -574 0
-566 -575 0
-566 -576 0
-566 -577 0
-566 -578 0
-566 -579 0
-566 -580 0
-567 -568 0
-567 -569 0
-567 -570 0
-567 -571 0
-567 -572 0
-567 -573 0
-567 -574 0
-567 -575 0
-567 -576 0
-567 -577 0
-567 -578 0
-567 -579 0
-567 -580 0
-568 -569 0
-568 -570 0
-568 -571 0
-568 -572 0
-568 -573 0
-568 -574 0
-568 -575 0
-568 -576 0
-568 -577 0
-568 -578 0
-568 -579 0
-568 -580 0
-569 -570 0
-569 -571 0
-569 -572 0
-569 -573 0
-569 -574 0
-569 -575 0
-569 -576 0
-569 -577 0
-569 -578 0
-569 -579 0
-569 -580 0
-570 -571 0
-570 -572 0
-570 -573 0
-570 -574 0
-570 -575 0
-570 -576 0
-570 -577 0
-570 -578 0
-570 -579 0
-570 -580 0
-571 -572 0
-571 -573 0
-571 -574 0
-571 -575 0
-571 -576 0
-571 -577 0
-571 -578 0
-571 -579 0
-571 -580 0
-572 -573 0
-572 -574 0
-572 -575 0
-572 -576 0
-572 -577 0
-572 -578 0
-572 -579 0
-572 -580 0
-573 -574 0
-573 -575 0
-573 -576 0
-573 -577 0
-573 -578 0
-573 -579 0
-573 -580 0
-574 -575 0
-574 -576 0
-574 -577 0
-574 -578 0
-574 -579 0
-574 -580 0
-575 -576 0
-575 -577 0
-575 -578 0
-575 -579 0
-575 -580 0
-576 -577 0
-576 -578 0
-576 -579 0
-576 -580 0
-577 -578 0
-577 -579 0
-577 -580 0
-578 -579 0
-578 -580 0
-579 -580 0
497 498 499 500 501 502 503 504 505 506 507 508 509 510 511 512 513 514 515 516 517 518 519 520 -91 132 0
497 498 499 500 501 502 503 504 505 506 507 508 509 510 511 512 513 514 515 516 517 518 519 520 -92 133 0
497 498 499 500 501 502 503 504 505 506 507 508 509 510 511 512 513 514 515 516 517 518 519 520 -93 134 0
497 498 499 500 501 502 503 504 505 506 507 508 509 510 511 512 513 514 515 516 517 518 519 520 -94 135 0
497 498 499 500 501 502 503 504 505 506 507 508 509 510 511 512 513 514 515 516 517 518 519 520 -95 136 0
497 498 499 500 501 502 503 504 505 506 507 508 509 510 511 512 513 514 515 516 517 518 519 520 -96 137 0
497 498 499 500 501 502 503 504 505 506 507 508 509 510 511 512 513 514 515 516 517 518 519 520 -97 138 0
497 498 499 500 501 502 503 504 505 506 507 508 509 510 511 512 513 514 515 516 517 518 519 520 -98 139 0
497 498 499 500 501 502 503 504 505 506 507 508 509 510 511 512 513 514 515 516 517 518 519 520 -99 140 0
497 498 499 500 501 502 503 504 505 506 507 508 509 510 511 512 513 514 515 516 517 518 519 520 -100 141 0
521 522 523 524 525 526 527 528 529 530 531 532 533 534 535 536 537 538 539 540 541 542 543 544 -101 142 0
521 522 523 524 525 526 527 528 529 530 531 532 533 534 535 536 537 538 539 540 541 542 543 544 -102 143 0
521 522 523 524 525 526 527 528 529 530 531 532 533 534 535 536 537 538 539 540 541 542 543 544 -103 144 0
521 522 523 524 525 526 527 528 529 530 531 532 533 534 535 536 537 538 539 540 541 542 543 544 -104 145 0
521 522 523 524 525 526 527 528 529 530 531 532 533 534 535 536 537 538 539 540 541 542 543 544 -105 146 0
521 522 523 524 525 526 527 528 529 530 531 532 533 534 535 536 537 538 539 540 541 542 543 544 -106 147 0
521 522 523 524 525 526 527 528 529 530 531 532 533 534 535 536 537 538 539 540 541 542 543 544 -107 148 0
521 522 523 524 525 526 527 528 529 530 531 532 533 534 535 536 537 538 539 540 541 542 543 544 -108 149 0
521 522 523 524 525 526 527 528 529 530 531 532 533 534 535 536 537 538 539 540 541 542 543 544 -109 150 0
521 522 523 524 525 526 527 528 529 530 531 532 533 534 535 536 537 538 539 540 541 542 543 544 -110 151 0
545 546 547 548 549 550 551 552 553 554 555 556 557 558 559 560 561 562 563 564 -111 152 0
545 546 547 548 549 550 551 552 553 554 555 556 557 558 559 560 561 562 563 564 -112 153 0
545 546 547 548 549 550 551 552 553 554 555 556 557 558 559 560 561 562 563 564 -113 154 0
545 546 547 548 549 550 551 552 553 554 555 556 557 558 559 560 561 562 563 564 -114 155 0
545 546 547 548 549 550 551 552 553 554 555 556 557 558 559 560 561 562 563 564 -115 156 0
545 546 547 548 549 550 551 552 553 554 555 556 557 558 559 560 561 562 563 564 -116 157 0
545 546 547 548 549 550 551 552 553 554 555 556 557 558 559 560 561 562 563 564 -117 158 0
545 546 547 548 549 550 551 552 553 554 555 556 557 558 559 560 561 562 563 564 -118 159 0
545 546 547 548 549 550 551 552 553 554 555 556 557 558 559 560 561 562 563 564 -119 160 0
565 566 567 568 569 570 571 572 573 574 575 576 577 578 579 580 -120 161 0
565 566 567 568 569 570 571 572 573 574 575 576 577 578 579 580 -121 162 0
565 566 567 568 569 570 571 572 573 574 575 576 577 578 579 580 -122 163 0
565 566 567 568 569 570 571 572 573 574 575 576 577 578 579 580 -123 164 0
565 566 567 568 569 570 571 572 573 574 575 576 577 578 579 580 -124 165 0
565 566 567 568 569 570 571 572 573 574 575 576 577 578 579 580 -125 166 0
565 566 567 568 569 570 571 572 573 574 575 576 577 578 579 580 -126 167 0
565 566 567 568 569 570 571 572 573 574 575 576 577 578 579 580 -127 168 0
-581 169 0
-581 170 0
-581 -132 0
-581 173 0
-581 -142 -148 180 0
-581 -142 -149 181 0
-581 -142 -150 182 0
-582 169 0
-582 170 0
-582 -133 0
-582 174 0
-582 -143 -148 180 0
-582 -143 -149 181 0
-582 -143 -150 182 0
-583 169 0
-583 170 0
-583 -134 0
-583 175 0
-583 -144 -148 180 0
-583 -144 -149 181 0
-583 -144 -150 182 0
-584 169 0
-584 170 0
-584 -135 0
-584 176 0
-584 -145 -148 180 0
-584 -145 -149 181 0
-584 -145 -150 182 0
-585 169 0
-585 170 0
-585 -136 0
-585 177 0
-585 -146 -148 180 0
-585 -146 -149 181 0
-585 -146 -150 182 0
-586 169 0
-586 170 0
-586 -137 0
-586 178 0
-586 -147 -148 180 0
-586 -147 -149 181 0
-586 -147 -150 182 0
-587 169 0
-587 171 0
-587 -132 0
-587 173 0
-587 -152 -157 180 0
-587 -152 -158 181 0
-587 -152 -159 182 0
-588 169 0
-588 171 0
-588 -133 0
-588 174 0
-588 -152 -157 180 0
-588 -153 -157 180 0
-588 -152 -158 181 0
-588 -153 -158 181 0
-588 -152 -159 182 0
-588 -153 -159 182 0
-589 169 0
-589 171 0
-589 -134 0
-589 175 0
-589 -153 -157 180 0
-589 -154 -157 180 0
-589 -153 -158 181 0
-589 -154 -158 181 0
-589 -153 -159 182 0
-589 -154 -159 182 0
-590 169 0
-590 171 0
-590 -135 0
-590 176 0
-590 -154 -157 180 0
-590 -155 -157 180 0
-590 -154 -158 181 0
-590 -155 -158 181 0
-590 -154 -159 182 0
-590 -155 -159 182 0
-591 169 0
-591 171 0
-591 -136 0
-591 177 0
-591 -155 -157 180 0
-591 -156 -157 180 0
-591 -155 -158 181 0
-591 -156 -158 181 0
-591 -155 -159 182 0
-591 -156 -159 182 0
-592 169 0
-592 171 0
-592 -137 0
-592 178 0
-592 -156 -157 180 0
-592 -156 -158 181 0
-592 -156 -159 182 0
-593 169 0
-593 172 0
-593 -132 0
-593 173 0
-593 -161 -165 180 0
-593 -161 -166 181 0
-593 -161 -167 182 0
-594 169 0
-594 172 0
-594 -133 0
-594 174 0
-594 -161 -165 180 0
-594 -162 -165 180 0
-594 -161 -166 181 0
-594 -162 -166 181 0
-594 -161 -167 182 0
-594 -162 -167 182 0
-595 169 0
-595 172 0
-595 -134 0
-595 175 0
-595 -161 -165 180 0
-595 -162 -165 180 0
-595 -163 -165 180 0
-595 -161 -166 181 0
-595 -162 -166 181 0
-595 -163 -166 181 0
-595 -161 -167 182 0
-595 -162 -167 182 0
-595 -163 -167 182 0
-596 169 0
-596 172 0
-596 -135 0
-596 176 0
-596 -162 -165 180 0
-596 -163 -165 180 0
-596 -164 -165 180 0
-596 -162 -166 181 0
-596 -163 -166 181 0
-596 -164 -166 181 0
-596 -162 -167 182 0
-596 -163 -167 182 0
-596 -164 -167 182 0
-597 169 0
-597 172 0
-597 -136 0
-597 177 0
-597 -163 -165 180 0
-597 -164 -165 180 0
-597 -163 -166 181 0
-597 -164 -166 181 0
-597 -163 -167 182 0
-597 -164 -167 182 0
-598 169 0
-598 172 0
-598 -137 0
-598 178 0
-598 -164 -165 180 0
-598 -164 -166 181 0
-598 -164 -167 182 0
-599 169 0
-599 -132 0
-599 173 0
-599 179 0
-600 169 0
-600 -133 0
-600 174 0
-600 179 0
-601 169 0
-601 -134 0
-601 175 0
-601 179 0
-602 169 0
-602 -135 0
-602 176 0
-602 179 0
-603 169 0
-603 -136 0
-603 177 0
-603 179 0
-604 169 0
-604 -137 0
-604 178 0
-604 179 0
-605 170 0
-605 169 0
-605 -142 0
-605 183 0
-605 -132 -138 190 0
-605 -132 -139 191 0
-605 -132 -140 192 0
-606 170 0
-606 169 0
-606 -143 0
-606 184 0
-606 -133 -138 190 0
-606 -133 -139 191 0
-606 -133 -140 192 0
-607 170 0
-607 169 0
-607 -144 0
-607 185 0
-607 -134 -138 190 0
-607 -134 -139 191 0
-607 -134 -140 192 0
-608 170 0
-608 169 0
-608 -145 0
-608 186 0
-608 -135 -138 190 0
-608 -135 -139 191 0
-608 -135 -140 192 0
-609 170 0
-609 169 0
-609 -146 0
-609 187 0
-609 -136 -138 190 0
-609 -136 -139 191 0
-609 -136 -140 192 0
-610 170 0
-610 169 0
-610 -147 0
-610 188 0
-610 -137 -138 190 0
-610 -137 -139 191 0
-610 -137 -140 192 0
-611 170 0
-611 171 0
-611 -142 0
-611 183 0
-611 -152 -157 190 0
-611 -152 -158 191 0
-611 -152 -159 192 0
-612 170 0
-612 171 0
-612 -143 0
-612 184 0
-612 -152 -157 190 0
-612 -153 -157 190 0
-612 -152 -158 191 0
-612 -153 -158 191 0
-612 -152 -159 192 0
-612 -153 -159 192 0
-613 170 0
-613 171 0
-613 -144 0
-613 185 0
-613 -153 -157 190 0
-613 -154 -157 190 0
-613 -153 -158 191 0
-613 -154 -158 191 0
-613 -153 -159 192 0
-613 -154 -159 192 0
-614 170 0
-614 171 0
-614 -145 0
-614 186 0
-614 -154 -157 190 0
-614 -155 -157 190 0
-614 -154 -158 191 0
-614 -155 -158 191 0
-614 -154 -159 192 0
-614 -155 -159 192 0
-615 170 0
-615 171 0
-615 -146 0
-615 187 0
-615 -155 -157 190 0
-615 -156 -157 190 0
-615 -155 -158 191 0
-615 -156 -158 191 0
-615 -155 -159 192 0
-615 -156 -159 192 0
-616 170 0
-616 171 0
-616 -147 0
-616 188 0
-616 -156 -157 190 0
-616 -156 -158 191 0
-616 -156 -159 192 0
-617 170 0
-617 172 0
-617 -142 0
-617 183 0
-617 -161 -165 190 0
-617 -161 -166 191 0
-617 -161 -167 192 0
-618 170 0
-618 172 0
-618 -143 0
-618 184 0
-618 -161 -165 190 0
-618 -162 -165 190 0
-618 -161 -166 191 0
-618 -162 -166 191 0
-618 -161 -167 192 0
-618 -162 -167 192 0
-619 170 0
-619 172 0
-619 -144 0
-619 185 0
-619 -161 -165 190 0
-619 -162 -165 190 0
-619 -163 -165 190 0
-619 -161 -166 191 0
-619 -162 -166 191 0
-619 -163 -166 191 0
-619 -161 -167 192 0
-619 -162 -167 192 0
-619 -163 -167 192 0
-620 170 0
-620 172 0
-620 -145 0
-620 186 0
-620 -162 -165 190 0
-620 -163 -165 190 0
-620 -164 -165 190 0
-620 -162 -166 191 0
-620 -163 -166 191 0
-620 -164 -166 191 0
-620 -162 -167 192 0
-620 -163 -167 192 0
-620 -164 -167 192 0
-621 170 0
-621 172 0
-621 -146 0
-621 187 0
-621 -163 -165 190 0
-621 -164 -165 190 0
-621 -163 -166 191 0
-621 -164 -166 191 0
-621 -163 -167 192 0
-621 -164 -167 192 0
-622 170 0
-622 172 0
-622 -147 0
-622 188 0
-622 -164 -165 190 0
-622 -164 -166 191 0
-622 -164 -167 192 0
-623 170 0
-623 -142 0
-623 183 0
-623 189 0
-624 170 0
-624 -143 0
-624 184 0
-624 189 0
-625 170 0
-625 -144 0
-625 185 0
-625 189 0
-626 170 0
-626 -145 0
-626 186 0
-626 189 0
-627 170 0
-627 -146 0
-627 187 0
-627 189 0
-628 170 0
-628 -147 0
-628 188 0
-628 189 0
-629 171 0
-629 169 0
-629 -152 0
-629 193 0
-629 -132 -138 199 0
-629 -133 -138 199 0
-629 -132 -139 200 0
-629 -133 -139 200 0
-629 -132 -140 201 0
-629 -133 -140 201 0
-630 171 0
-630 169 0
-630 -153 0
-630 194 0
-630 -133 -138 199 0
-630 -134 -138 199 0
-630 -133 -139 200 0
-630 -134 -139 200 0
-630 -133 -140 201 0
-630 -134 -140 201 0
-631 171 0
-631 169 0
-631 -154 0
-631 195 0
-631 -134 -138 199 0
-631 -135 -138 199 0
-631 -134 -139 200 0
-631 -135 -139 200 0
-631 -134 -140 201 0
-631 -135 -140 201 0
-632 171 0
-632 169 0
-632 -155 0
-632 196 0
-632 -135 -138 199 0
-632 -136 -138 199 0
-632 -135 -139 200 0
-632 -136 -139 200 0
-632 -135 -140 201 0
-632 -136 -140 201 0
-633 171 0
-633 169 0
-633 -156 0
-633 197 0
-633 -136 -138 199 0
-633 -137 -138 199 0
-633 -136 -139 200 0
-633 -137 -139 200 0
-633 -136 -140 201 0
-633 -137 -140 201 0
-634 171 0
-634 170 0
-634 -152 0
-634 193 0
-634 -142 -148 199 0
-634 -143 -148 199 0
-634 -142 -149 200 0
-634 -143 -149 200 0
-634 -142 -150 201 0
-634 -143 -150 201 0
-635 171 0
-635 170 0
-635 -153 0
-635 194 0
-635 -143 -148 199 0
-635 -144 -148 199 0
-635 -143 -149 200 0
-635 -144 -149 200 0
-635 -143 -150 201 0
-635 -144 -150 201 0
-636 171 0
-636 170 0
-636 -154 0
-636 195 0
-636 -144 -148 199 0
-636 -145 -148 199 0
-636 -144 -149 200 0
-636 -145 -149 200 0
-636 -144 -150 201 0
-636 -145 -150 201 0
-637 171 0
-637 170 0
-637 -155 0
-637 196 0
-637 -145 -148 199 0
-637 -146 -148 199 0
-637 -145 -149 200 0
-637 -146 -149 200 0
-637 -145 -150 201 0
-637 -146 -150 201 0
-638 171 0
-638 170 0
-638 -156 0
-638 197 0
-638 -146 -148 199 0
-638 -147 -148 199 0
-638 -146 -149 200 0
-638 -147 -149 200 0
-638 -146 -150 201 0
-638 -147 -150 201 0
-639 171 0
-639 172 0
-639 -152 0
-639 193 0
-639 -161 -165 199 0
-639 -162 -165 199 0
-639 -161 -166 200 0
-639 -162 -166 200 0
-639 -161 -167 201 0
-639 -162 -167 201 0
-640 171 0
-640 172 0
-640 -153 0
-640 194 0
-640 -161 -165 199 0
-640 -162 -165 199 0
-640 -163 -165 199 0
-640 -161 -166 200 0
-640 -162 -166 200 0
-640 -163 -166 200 0
-640 -161 -167 201 0
-640 -162 -167 201 0
-640 -163 -167 201 0
-641 171 0
-641 172 0
-641 -154 0
-641 195 0
-641 -161 -165 199 0
-641 -162 -165 199 0
-641 -163 -165 199 0
-641 -164 -165 199 0
-641 -161 -166 200 0
-641 -162 -166 200 0
-641 -163 -166 200 0
-641 -164 -166 200 0
-641 -161 -167 201 0
-641 -162 -167 201 0
-641 -163 -167 201 0
-641 -164 -167 201 0
-642 171 0
-642 172 0
-642 -155 0
-642 196 0
-642 -162 -165 199 0
-642 -163 -165 199 0
-642 -164 -165 199 0
-642 -162 -166 200 0
-642 -163 -166 200 0
-642 -164 -166 200 0
-642 -162 -167 201 0
-642 -163 -167 201 0
-642 -164 -167 201 0
-643 171 0
-643 172 0
-643 -156 0
-643 197 0
-643 -163 -165 199 0
-643 -164 -165 199 0
-643 -163 -166 200 0
-643 -164 -166 200 0
-643 -163 -167 201 0
-643 -164 -167 201 0
-644 171 0
-644 -152 0
-644 193 0
-644 198 0
-645 171 0
-645 -153 0
-645 194 0
-645 198 0
-646 171 0
-646 -154 0
-646 195 0
-646 198 0
-647 171 0
-647 -155 0
-647 196 0
-647 198 0
-648 171 0
-648 -156 0
-648 197 0
-648 198 0
-649 172 0
-649 169 0
-649 -161 0
-649 202 0
-649 -132 -138 207 0
-649 -133 -138 207 0
-649 -134 -138 207 0
-649 -132 -139 208 0
-649 -133 -139 208 0
-649 -134 -139 208 0
-649 -132 -140 209 0
-649 -133 -140 209 0
-649 -134 -140 209 0
-650 172 0
-650 169 0
-650 -162 0
-650 203 0
-650 -133 -138 207 0
-650 -134 -138 207 0
-650 -135 -138 207 0
-650 -133 -139 208 0
-650 -134 -139 208 0
-650 -135 -139 208 0
-650 -133 -140 209 0
-650 -134 -140 209 0
-650 -135 -140 209 0
-651 172 0
-651 169 0
-651 -163 0
-651 204 0
-651 -134 -138 207 0
-651 -135 -138 207 0
-651 -136 -138 207 0
-651 -134 -139 208 0
-651 -135 -139 208 0
-651 -136 -139 208 0
-651 -134 -140 209 0
-651 -135 -140 209 0
-651 -136 -140 209 0
-652 172 0
-652 169 0
-652 -164 0
-652 205 0
-652 -135 -138 207 0
-652 -136 -138 207 0
-652 -137 -138 207 0
-652 -135 -139 208 0
-652 -136 -139 208 0
-652 -137 -139 208 0
-652 -135 -140 209 0
-652 -136 -140 209 0
-652 -137 -140 209 0
-653 172 0
-653 170 0
-653 -161 0
-653 202 0
-653 -142 -148 207 0
-653 -143 -148 207 0
-653 -144 -148 207 0
-653 -142 -149 208 0
-653 -143 -149 208 0
-653 -144 -149 208 0
-653 -142 -150 209 0
-653 -143 -150 209 0
-653 -144 -150 209 0
-654 172 0
-654 170 0
-654 -162 0
-654 203 0
-654 -143 -148 207 0
-654 -144 -148 207 0
-654 -145 -148 207 0
-654 -143 -149 208 0
-654 -144 -149 208 0
-654 -145 -149 208 0
-654 -143 -150 209 0
-654 -144 -150 209 0
-654 -145 -150 209 0
-655 172 0
-655 170 0
-655 -163 0
-655 204 0
-655 -144 -148 207 0
-655 -145 -148 207 0
-655 -146 -148 207 0
-655 -144 -149 208 0
-655 -145 -149 208 0
-655 -146 -149 208 0
-655 -144 -150 209 0
-655 -145 -150 209 0
-655 -146 -150 209 0
-656 172 0
-656 170 0
-656 -164 0
-656 205 0
-656 -145 -148 207 0
-656 -146 -148 207 0
-656 -147 -148 207 0
-656 -145 -149 208 0
-656 -146 -149 208 0
-656 -147 -149 208 0
-656 -145 -150 209 0
-656 -146 -150 209 0
-656 -147 -150 209 0
-657 172 0
-657 171 0
-657 -161 0
-657 202 0
-657 -152 -157 207 0
-657 -153 -157 207 0
-657 -154 -157 207 0
-657 -152 -158 208 0
-657 -153 -158 208 0
-657 -154 -158 208 0
-657 -152 -159 209 0
-657 -153 -159 209 0
-657 -154 -159 209 0
-658 172 0
-658 171 0
-658 -162 0
-658 203 0
-658 -152 -157 207 0
-658 -153 -157 207 0
-658 -154 -157 207 0
-658 -155 -157 207 0
-658 -152 -158 208 0
-658 -153 -158 208 0
-658 -154 -158 208 0
-658 -155 -158 208 0
-658 -152 -159 209 0
-658 -153 -159 209 0
-658 -154 -159 209 0
-658 -155 -159 209 0
-659 172 0
-659 171 0
-659 -163 0
-659 204 0
-659 -153 -157 207 0
-659 -154 -157 207 0
-659 -155 -157 207 0
-659 -156 -157 207 0
-659 -153 -158 208 0
-659 -154 -158 208 0
-659 -155 -158 208 0
-659 -156 -158 208 0
-659 -153 -159 209 0
-659 -154 -159 209 0
-659 -155 -159 209 0
-659 -156 -159 209 0
-660 172 0
-660 171 0
-660 -164 0
-660 205 0
-660 -154 -157 207 0
-660 -155 -157 207 0
-660 -156 -157 207 0
-660 -154 -158 208 0
-660 -155 -158 208 0
-660 -156 -158 208 0
-660 -154 -159 209 0
-660 -155 -159 209 0
-660 -156 -159 209 0
-661 172 0
-661 -161 0
-661 202 0
-661 206 0
-662 172 0
-662 -162 0
-662 203 0
-662 206 0
-663 172 0
-663 -163 0
-663 204 0
-663 206 0
-664 172 0
-664 -164 0
-664 205 0
-664 206 0
581 582 583 584 585 586 587 588 589 590 591 592 593 594 595 596 597 598 599 600 601 602 603 604 605 606 607 608 609 610 611 612 613 614 615 616 617 618 619 620 621 622 623 624 625 626 627 628 629 630 631 632 633 634 635 636 637 638 639 640 641 642 643 644 645 646 647 648 649 650 651 652 653 654 655 656 657 658 659 660 661 662 663 664 0
-581 -582 0
-581 -583 0
-581 -584 0
-581 -585 0
-581 -586 0
-581 -587 0
-581 -588 0
-581 -589 0
-581 -590 0
-581 -591 0
-581 -592 0
-581 -593 0
-581 -594 0
-581 -595 0
-581 -596 0
-581 -597 0
-581 -598 0
-581 -599 0
-581 -600 0
-581 -601 0
-581 -602 0
-581 -603 0
-581 -604 0
-581 -605 0
-581 -606 0
-581 -607 0
-581 -608 0
-581 -609 0
-581 -610 0
-581 -611 0
-581 -612 0
-581 -613 0
-581 -614 0
-581 -615 0
-581 -616 0
-581 -617 0
-581 -618 0
-581 -619 0
-581 -620 0
-581 -621 0
-581 -622 0
-581 -623 0
-581 -624 0
-581 -625 0
-581 -626 0
-581 -627 0
-581 -628 0
-581 -629 0
-581 -630 0
-581 -631 0
-581 -632 0
-581 -633 0
-581 -634 0
-581 -635 0
-581 -636 0
-581 -637 0
-581 -638 0
-581 -639 0
-581 -640 0
-581 -641 0
-581 -642 0
-581 -643 0
-581 -644 0
-581 -645 0
-581 -646 0
-581 -647 0
-581 -648 0
-581 -649 0
-581 -650 0
-581 -651 0
-581 -652 0
-581 -653 0
-581 -654 0
-581 -655 0
-581 -656 0
-581 -657 0
-581 -658 0
-581 -659 0
-581 -660 0
-581 -661 0
-581 -662 0
-581 -663 0
-581 -664 0
-582 -583 0
-582 -584 0
-582 -585 0
-582 -586 0
-582 -587 0
-582 -588 0
-582 -589 0
-582 -590 0
-582 -591 0
-582 -592 0
-582 -593 0
-582 -594 0
-582 -595 0
-582 -596 0
-582 -597 0
-582 -598 0
-582 -599 0
-582 -600 0
-582 -601 0
-582 -602 0
-582 -603 0
-582 -604 0
-582 -605 0
-582 -606 0
-582 -607 0
-582 -608 0
-582 -609 0
-582 -610 0
-582 -611 0
-582 -612 0
-582 -613 0
-582 -614 0
-582 -615 0
-582 -616 0
-582 -617 0
-582 -618 0
-582 -619 0
-582 -620 0
-582 -621 0
-582 -622 0
-582 -623 0
-582 -624 0
-582 -625 0
-582 -626 0
-582 -627 0
-582 -628 0
-582 -629 0
-582 -630 0
-582 -631 0
-582 -632 0
-582 -633 0
-582 -634 0
-582 -635 0
-582 -636 0
-582 -637 0
-582 -638 0
-582 -639 0
-582 -640 0
-582 -641 0
-582 -642 0
-582 -643 0
-582 -644 0
-582 -645 0
-582 -646 0
-582 -647 0
-582 -648 0
-582 -649 0
-582 -650 0
-582 -651 0
-582 -652 0
-582 -653 0
-582 -654 0
-582 -655 0
-582 -656 0
-582 -657 0
-582 -658 0
-582 -659 0
-582 -660 0
-582 -661 0
-582 -662 0
-582 -663 0
-582 -664 0
-583 -584 0
-583 -585 0
-583 -586 0
-583 -587 0
-583 -588 0
-583 -589 0
-583 -590 0
-583 -591 0
-583 -592 0
-583 -593 0
-583 -594 0
-583 -595 0
-583 -596 0
-583 -597 0
-583 -598 0
-583 -599 0
-583 -600 0
-583 -601 0
-583 -602 0
-583 -603 0
-583 -604 0
-583 -605 0
-583 -606 0
-583 -607 0
-583 -608 0
-583 -609 0
-583 -610 0
-583 -611 0
-583 -612 0
-583 -613 0
-583 -614 0
-583 -615 0
-583 -616 0
-583 -617 0
-583 -618 0
-583 -619 0
-583 -620 0
-583 -621 0
-583 -622 0
-583 -623 0
-583 -624 0
-583 -625 0
-583 -626 0
-583 -627 0
-583 -628 0
-583 -629 0
-583 -630 0
-583 -631 0
-583 -632 0
-583 -633 0
-583 -634 0
-583 -635 0
-583 -636 0
-583 -637 0
-583 -638 0
-583 -639 0
-583 -640 0
-583 -641 0
-583 -642 0
-583 -643 0
-583 -644 0
-583 -645 0
-583 -646 0
-583 -647 0
-583 -648 0
-583 -649 0
-583 -650 0
-583 -651 0
-583 -652 0
-583 -653 0
-583 -654 0
-583 -655 0
-583 -656 0
-583 -657 0
-583 -658 0
-583 -659 0
-583 -660 0
-583 -661 0
-583 -662 0
-583 -663 0
-583 -664 0
-584 -585 0
-584 -586 0
-584 -587 0
-584 -588 0
-584 -589 0
-584 -590 0
-584 -591 0
-584 -592 0
-584 -593 0
-584 -594 0
-584 -595 0
-584 -596 0
-584 -597 0
-584 -598 0
-584 -599 0
-584 -600 0
-584 -601 0
-584 -602 0
-584 -603 0
-584 -604 0
-584 -605 0
-584 -606 0
-584 -607 0
-584 -608 0
-584 -609 0
-584 -610 0
-584 -611 0
-584 -612 0
-584 -613 0
-584 -614 0
-584 -615 0
-584 -616 0
-584 -617 0
-584 -618 0
-584 -619 0
-584 -620 0
-584 -621 0
-584 -622 0
-584 -623 0
-584 -624 0
-584 -625 0
-584 -626 0
-584 -627 0
-584 -628 0
-584 -629 0
-584 -630 0
-584 -631 0
-584 -632 0
-584 -633 0
-584 -634 0
-584 -635 0
-584 -636 0
-584 -637 0
-584 -638 0
-584 -639 0
-584 -640 0
-584 -641 0
-584 -642 0
-584 -643 0
-584 -644 0
-584 -645 0
-584 -646 0
-584 -647 0
-584 -648 0
-584 -649 0
-584 -650 0
-584 -651 0
-584 -652 0
-584 -653 0
-584 -654 0
-584 -655 0
-584 -656 0
-584 -657 0
-584 -658 0
-584 -659 0
-584 -660 0
-584 -661 0
-584 -662 0
-584 -663 0
-584 -664 0
-585 -586 0
-585 -587 0
-585 -588 0
-585 -589 0
-585 -590 0
-585 -591 0
-585 -592 0
-585 -593 0
-585 -594 0
-585 -595 0
-585 -596 0
-585 -597 0
-585 -598 0
-585 -599 0
-585 -600 0
-585 -601 0
-585 -602 0
-585 -603 0
-585 -604 0
-585 -605 0
-585 -606 0
-585 -607 0
-585 -608 0
-585 -609 0
-585 -610 0
-585 -611 0
-585 -612 0
-585 -613 0
-585 -614 0
-585 -615 0
-585 -616 0
-585 -617 0
-585 -618 0
-585 -619 0
-585 -620 0
-585 -621 0
-585 -622 0
-585 -623 0
-585 -624 0
-585 -625 0
-585 -626 0
-585 -627 0
-585 -628 0
-585 -629 0
-585 -630 0
-585 -631 0
-585 -632 0
-585 -633 0
-585 -634 0
-585 -635 0
-585 -636 0
-585 -637 0
-585 -638 0
-585 -639 0
-585 -640 0
-585 -641 0
-585 -642 0
-585 -643 0
-585 -644 0
-585 -645 0
-585 -646 0
-585 -647 0
-585 -648 0
-585 -649 0
-585 -650 0
-585 -651 0
-585 -652 0
-585 -653 0
-585 -654 0
-585 -655 0
-585 -656 0
-585 -657 0
-585 -658 0
-585 -659 0
-585 -660 0
-585 -661 0
-585 -662 0
-585 -663 0
-585 -664 0
-586 -587 0
-586 -588 0
-586 -589 0
-586 -590 0
-586 -591 0
-586 -592 0
-586 -593 0
-586 -594 0
-586 -595 0
-586 -596 0
-586 -597 0
-586 -598 0
-586 -599 0
-586 -600 0
-586 -601 0
-586 -602 0
-586 -603 0
-586 -604 0
-586 -605 0
-586 -606 0
-586 -607 0
-586 -608 0
-586 -609 0
-586 -610 0
-586 -611 0
-586 -612 0
-586 -613 0
-586 -614 0
-586 -615 0
-586 -616 0
-586 -617 0
-586 -618 0
-586 -619 0
-586 -620 0
-586 -621 0
-586 -622 0
-586 -623 0
-586 -624 0
-586 -625 0
-586 -626 0
-586 -627 0
-586 -628 0
-586 -629 0
-586 -630 0
-586 -631 0
-586 -632 0
-586 -633 0
-586 -634 0
-586 -635 0
-586 -636 0
-586 -637 0
-586 -638 0
-586 -639 0
-586 -640 0
-586 -641 0
-586 -642 0
-586 -643 0
-586 -644 0
-586 -645 0
-586 -646 0
-586 -647 0
-586 -648 0
-586 -649 0
-586 -650 0
-586 -651 0
-586 -652 0
-586 -653 0
-586 -654 0
-586 -655 0
-586 -656 0
-586 -657 0
-586 -658 0
-586 -659 0
-586 -660 0
-586 -661 0
-586 -662 0
-586 -663 0
-586 -664 0
-587 -588 0
-587 -589 0
-587 -590 0
-587 -591 0
-587 -592 0
-587 -593 0
-587 -594 0
-587 -595 0
-587 -596 0
-587 -597 0
-587 -598 0
-587 -599 0
-587 -600 0
-587 -601 0
-587 -602 0
-587 -603 0
-587 -604 0
-587 -605 0
-587 -606 0
-587 -607 0
-587 -608 0
-587 -609 0
-587 -610 0
-587 -611 0
-587 -612 0
-587 -613 0
-587 -614 0
-587 -615 0
-587 -616 0
-587 -617 0
-587 -618 0
-587 -619 0
-587 -620 0
-587 -621 0
-587 -622 0
-587 -623 0
-587 -624 0
-587 -625 0
-587 -626 0
-587 -627 0
-587 -628 0
-587 -629 0
-587 -630 0
-587 -631 0
-587 -632 0
-587 -633 0
-587 -634 0
-587 -635 0
-587 -636 0
-587 -637 0
-587 -638 0
-587 -639 0
-587 -640 0
-587 -641 0
-587 -642 0
-587 -643 0
-587 -644 0
-587 -645 0
-587 -646 0
-587 -647 0
-587 -648 0
-587 -649 0
-587 -650 0
-587 -651 0
-587 -652 0
-587 -653 0
-587 -654 0
-587 -655 0
-587 -656 0
-587 -657 0
-587 -658 0
-587 -659 0
-587 -660 0
-587 -661 0
-587 -662 0
-587 -663 0
-587 -664 0
-588 -589 0
-588 -590 0
-588 -591 0
-588 -592 0
-588 -593 0
-588 -594 0
-588 -595 0
-588 -596 0
-588 -597 0
-588 -598 0
-588 -599 0
-588 -600 0
-588 -601 0
-588 -602 0
-588 -603 0
-588 -604 0
-588 -605 0
-588 -606 0
-588 -607 0
-588 -608 0
-588 -609 0
-588 -610 0
-588 -611 0
-588 -612 0
-588 -613 0
-588 -614 0
-588 -615 0
-588 -616 0
-588 -617 0
-588 -618 0
-588 -619 0
-588 -620 0
-588 -621 0
-588 -622 0
-588 -623 0
-588 -624 0
-588 -625 0
-588 -626 0
-588 -627 0
-588 -628 0
-588 -629 0
-588 -630 0
-588 -631 0
-588 -632 0
-588 -633 0
-588 -634 0
-588 -635 0
-588 -636 0
-588 -637 0
-588 -638 0
-588 -639 0
-588 -640 0
-588 -641 0
-588 -642 0
-588 -643 0
-588 -644 0
-588 -645 0
-588 -646 0
-588 -647 0
-588 -648 0
-588 -649 0
-588 -650 0
-588 -651 0
-588 -652 0
-588 -653 0
-588 -654 0
-588 -655 0
-588 -656 0
-588 -657 0
-588 -658 0
-588 -659 0
-588 -660 0
-588 -661 0
-588 -662 0
-588 -663 0
-588 -664 0
-589 -590 0
-589 -591 0
-589 -592 0
-589 -593 0
-589 -594 0
-589 -595 0
-589 -596 0
-589 -597 0
-589 -598 0
-589 -599 0
-589 -600 0
-589 -601 0
-589 -602 0
-589 -603 0
-589 -604 0
-589 -605 0
-589 -606 0
-589 -607 0
-589 -608 0
-589 -609 0
-589 -610 0
-589 -611 0
-589 -612 0
-589 -613 0
-589 -614 0
-589 -615 0
-589 -616 0
-589 -617 0
-589 -618 0
-589 -619 0
-589 -620 0
-589 -621 0
-589 -622 0
-589 -623 0
-589 -624 0
-589 -625 0
-589 -626 0
-589 -627 0
-589 -628 0
-589 -629 0
-589 -630 0
-589 -631 0
-589 -632 0
-589 -633 0
-589 -634 0
-589 -635 0
-589 -636 0
-589 -637 0
-589 -638 0
-589 -639 0
-589 -640 0
-589 -641 0
-589 -642 0
-589 -643 0
-589 -644 0
-589 -645 0
-589 -646 0
-589 -647 0
-589 -648 0
-589 -649 0
-589 -650 0
-589 -651 0
-589 -652 0
-589 -653 0
-589 -654 0
-589 -655 0
-589 -656 0
-589 -657 0
-589 -658 0
-589 -659 0
-589 -660 0
-589 -661 0
-589 -662 0
-589 -663 0
-589 -664 0
-590 -591 0
-590 -592 0
-590 -593 0
-590 -594 0
-590 -595 0
-590 -596 0
-590 -597 0
-590 -598 0
-590 -599 0
-590 -600 0
-590 -601 0
-590 -602 0
-590 -603 0
-590 -604 0
-590 -605 0
-590 -606 0
-590 -607 0
-590 -608 0
-590 -609 0
-590 -610 0
-590 -611 0
-590 -612 0
-590 -613 0
-590 -614 0
-590 -615 0
-590 -616 0
-590 -617 0
-590 -618 0
-590 -619 0
-590 -620 0
-590 -621 0
-590 -622 0
-590 -623 0
-590 -624 0
-590 -625 0
-590 -626 0
-590 -627 0
-590 -628 0
-590 -629 0
-590 -630 0
-590 -631 0
-590 -632 0
-590 -633 0
-590 -634 0
-590 -635 0
-590 -636 0
-590 -637 0
-590 -638 0
-590 -639 0
-590 -640 0
-590 -641 0
-590 -642 0
-590 -643 0
-590 -644 0
-590 -645 0
-590 -646 0
-590 -647 0
-590 -648 0
-590 -649 0
-590 -650 0
-590 -651 0
-590 -652 0
-590 -653 0
-590 -654 0
-590 -655 0
-590 -656 0
-590 -657 0
-590 -658 0
-590 -659 0
-590 -660 0
-590 -661 0
-590 -662 0
-590 -663 0
-590 -664 0
-591 -592 0
-591 -593 0
-591 -594 0
-591 -595 0
-591 -596 0
-591 -597 0
-591 -598 0
-591 -599 0
-591 -600 0
-591 -601 0
-591 -602 0
-591 -603 0
-591 -604 0
-591 -605 0
-591 -606 0
-591 -607 0
-591 -608 0
-591 -609 0
-591 -610 0
-591 -611 0
-591 -612 0
-591 -613 0
-591 -614 0
-591 -615 0
-591 -616 0
-591 -617 0
-591 -618 0
-591 -619 0
-591 -620 0
-591 -621 0
-591 -622 0
-591 -623 0
-591 -624 0
-591 -625 0
-591 -626 0
-591 -627 0
-591 -628 0
-591 -629 0
-591 -630 0
-591 -631 0
-591 -632 0
-591 -633 0
-591 -634 0
-591 -635 0
-591 -636 0
-591 -637 0
-591 -638 0
-591 -639 0
-591 -640 0
-591 -641 0
-591 -642 0
-591 -643 0
-591 -644 0
-591 -645 0
-591 -646 0
-591 -647 0
-591 -648 0
-591 -649 0
-591 -650 0
-591 -651 0
-591 -652 0
-591 -653 0
-591 -654 0
-591 -655 0
-591 -656 0
-591 -657 0
-591 -658 0
-591 -659 0
-591 -660 0
-591 -661 0
-591 -662 0
-591 -663 0
-591 -664 0
-592 -593 0
-592 -594 0
-592 -595 0
-592 -596 0
-592 -597 0
-592 -598 0
-592 -599 0
-592 -600 0
-592 -601 0
-592 -602 0
-592 -603 0
-592 -604 0
-592 -605 0
-592 -606 0
-592 -607 0
-592 -608 0
-592 -609 0
-592 -610 0
-592 -611 0
-592 -612 0
-592 -613 0
-592 -614 0
-592 -615 0
-592 -616 0
-592 -617 0
-592 -618 0
-592 -619 0
-592 -620 0
-592 -621 0
-592 -622 0
-592 -623 0
-592 -624 0
-592 -625 0
-592 -626 0
-592 -627 0
-592 -628 0
-592 -629 0
-592 -630 0
-592 -631 0
-592 -632 0
-592 -633 0
-592 -634 0
-592 -635 0
-592 -636 0
-592 -637 0
-592 -638 0
-592 -639 0
-592 -640 0
-592 -641 0
-592 -642 0
-592 -643 0
-592 -644 0
-592 -645 0
-592 -646 0
-592 -647 0
-592 -648 0
-592 -649 0
-592 -650 0
-592 -651 0
-592 -652 0
-592 -653 0
-592 -654 0
-592 -655 0
-592 -656 0
-592 -657 0
-592 -658 0
-592 -659 0
-592 -660 0
-592 -661 0
-592 -662 0
-592 -663 0
-592 -664 0
-593 -594 0
-593 -595 0
-593 -596 0
-593 -597 0
-593 -598 0
-593 -599 0
-593 -600 0
-593 -601 0
-593 -602 0
-593 -603 0
-593 -604 0
-593 -605 0
-593 -606 0
-593 -607 0
-593 -608 0
-593 -609 0
-593 -610 0
-593 -611 0
-593 -612 0
-593 -613 0
-593 -614 0
-593 -615 0
-593 -616 0
-593 -617 0
-593 -618 0
-593 -619 0
-593 -620 0
-593 -621 0
-593 -622 0
-593 -623 0
-593 -624 0
-593 -625 0
-593 -626 0
-593 -627 0
-593 -628 0
-593 -629 0
-593 -630 0
-593 -631 0
-593 -632 0
-593 -633 0
-593 -634 0
-593 -635 0
-593 -636 0
-593 -637 0
-593 -638 0
-593 -639 0
-593 -640 0
-593 -641 0
-593 -642 0
-593 -643 0
-593 -644 0
-593 -645 0
-593 -646 0
-593 -647 0
-593 -648 0
-593 -649 0
-593 -650 0
-593 -651 0
-593 -652 0
-593 -653 0
-593 -654 0
-593 -655 0
-593 -656 0
-593 -657 0
-593 -658 0
-593 -659 0
-593 -660 0
-593 -661 0
-593 -662 0
-593 -663 0
-593 -664 0
-594 -595 0
-594 -596 0
-594 -597 0
-594 -598 0
-594 -599 0
-594 -600 0
-594 -601 0
-594 -602 0
-594 -603 0
-594 -604 0
-594 -605 0
-594 -606 0
-594 -607 0
-594 -608 0
-594 -609 0
-594 -610 0
-594 -611 0
-594 -612 0
-594 -613 0
-594 -614 0
-594 -615 0
-594 -616 0
-594 -617 0
-594 -618 0
-594 -619 0
-594 -620 0
-594 -621 0
-594 -622 0
-594 -623 0
-594 -624 0
-594 -625 0
-594 -626 0
-594 -627 0
-594 -628 0
-594 -629 0
-594 -630 0
-594 -631 0
-594 -632 0
-594 -633 0
-594 -634 0
-594 -635 0
-594 -636 0
-594 -637 0
-594 -638 0
-594 -639 0
-594 -640 0
-594 -641 0
-594 -642 0
-594 -643 0
-594 -644 0
-594 -645 0
-594 -646 0
-594 -647 0
-594 -648 0
-594 -649 0
-594 -650 0
-594 -651 0
-594 -652 0
-594 -653 0
-594 -654 0
-594 -655 0
-594 -656 0
-594 -657 0
-594 -658 0
-594 -659 0
-594 -660 0
-594 -661 0
-594 -662 0
-594 -663 0
-594 -664 0
-595 -596 0
-595 -597 0
-595 -598 0
-595 -599 0
-595 -600 0
-595 -601 0
-595 -602 0
-595 -603 0
-595 -604 0
-595 -605 0
-595 -606 0
-595 -607 0
-595 -608 0
-595 -609 0
-595 -610 0
-595 -611 0
-595 -612 0
-595 -613 0
-595 -614 0
-595 -615 0
-595 -616 0
-595 -617 0
-595 -618 0
-595 -619 0
-595 -620 0
-595 -621 0
-595 -622 0
-595 -623 0
-595 -624 0
-595 -625 0
-595 -626 0
-595 -627 0
-595 -628 0
-595 -629 0
-595 -630 0
-595 -631 0
-595 -632 0
-595 -633 0
-595 -634 0
-595 -635 0
-595 -636 0
-595 -637 0
-595 -638 0
-595 -639 0
-595 -640 0
-595 -641 0
-595 -642 0
-595 -643 0
-595 -644 0
-595 -645 0
-595 -646 0
-595 -647 0
-595 -648 0
-595 -649 0
-595 -650 0
-595 -651 0
-595 -652 0
-595 -653 0
-595 -654 0
-595 -655 0
-595 -656 0
-595 -657 0
-595 -658 0
-595 -659 0
-595 -660 0
-595 -661 0
-595 -662 0
-595 -663 0
-595 -664 0
-596 -597 0
-596 -598 0
-596 -599 0
-596 -600 0
-596 -601 0
-596 -602 0
-596 -603 0
-596 -604 0
-596 -605 0
-596 -606 0
-596 -607 0
-596 -608 0
-596 -609 0
-596 -610 0
-596 -611 0
-596 -612 0
-596 -613 0
-596 -614 0
-596 -615 0
-596 -616 0
-596 -617 0
-596 -618 0
-596 -619 0
-596 -620 0
-596 -621 0
-596 -622 0
-596 -623 0
-596 -624 0
-596 -625 0
-596 -626 0
-596 -627 0
-596 -628 0
-596 -629 0
-596 -630 0
-596 -631 0
-596 -632 0
-596 -633 0
-596 -634 0
-596 -635 0
-596 -636 0
-596 -637 0
-596 -638 0
-596 -639 0
-596 -640 0
-596 -641 0
-596 -642 0
-596 -643 0
-596 -644 0
-596 -645 0
-596 -646 0
-596 -647 0
-596 -648 0
-596 -649 0
-596 -650 0
-596 -651 0
-596 -652 0
-596 -653 0
-596 -654 0
-596 -655 0
-596 -656 0
-596 -657 0
-596 -658 0
-596 -659 0
-596 -660 0
-596 -661 0
-596 -662 0
-596 -663 0
-596 -664 0
-597 -598 0
-597 -599 0
-597 -600 0
-597 -601 0
-597 -602 0
-597 -603 0
-597 -604 0
-597 -605 0
-597 -606 0
-597 -607 0
-597 -608 0
-597 -609 0
-597 -610 0
-597 -611 0
-597 -612 0
-597 -613 0
-597 -614 0
-597 -615 0
-597 -616 0
-597 -617 0
-597 -618 0
-597 -619 0
-597 -620 0
-597 -621 0
-597 -622 0
-597 -623 0
-597 -624 0
-597 -625 0
-597 -626 0
-597 -627 0
-597 -628 0
-597 -629 0
-597 -630 0
-597 -631 0
-597 -632 0
-597 -633 0
-597 -634 0
-597 -635 0
-597 -636 0
-597 -637 0
-597 -638 0
-597 -639 0
-597 -640 0
-597 -641 0
-597 -642 0
-597 -643 0
-597 -644 0
-597 -645 0
-597 -646 0
-597 -647 0
-597 -648 0
-597 -649 0
-597 -650 0
-597 -651 0
-597 -652 0
-597 -653 0
-597 -654 0
-597 -655 0
-597 -656 0
-597 -657 0
-597 -658 0
-597 -659 0
-597 -660 0
-597 -661 0
-597 -662 0
-597 -663 0
-597 -664 0
-598 -599 0
-598 -600 0
-598 -601 0
-598 -602 0
-598 -603 0
-598 -604 0
-598 -605 0
-598 -606 0
-598 -607 0
-598 -608 0
-598 -609 0
-598 -610 0
-598 -611 0
-598 -612 0
-598 -613 0
-598 -614 0
-598 -615 0
-598 -616 0
-598 -617 0
-598 -618 0
-598 -619 0
-598 -620 0
-598 -621 0
-598 -622 0
-598 -623 0
-598 -624 0
-598 -625 0
-598 -626 0
-598 -627 0
-598 -628 0
-598 -629 0
-598 -630 0
-598 -631 0
-598 -632 0
-598 -633 0
-598 -634 0
-598 -635 0
-598 -636 0
-598 -637 0
-598 -638 0
-598 -639 0
-598 -640 0
-598 -641 0
-598 -642 0
-598 -643 0
-598 -644 0
-598 -645 0
-598 -646 0
-598 -647 0
-598 -648 0
-598 -649 0
-598 -650 0
-598 -651 0
-598 -652 0
-598 -653 0
-598 -654 0
-598 -655 0
-598 -656 0
-598 -657 0
-598 -658 0
-598 -659 0
-598 -660 0
-598 -661 0
-598 -662 0
-598 -663 0
-598 -664 0
-599 -600 0
-599 -601 0
-599 -602 0
-599 -603 0
-599 -604 0
-599 -605 0
-599 -606 0
-599 -607 0
-599 -608 0
-599 -609 0
-599 -610 0
-599 -611 0
-599 -612 0
-599 -613 0
-599 -614 0
-599 -615 0
-599 -616 0
-599 -617 0
-599 -618 0
-599 -619 0
-599 -620 0
-599 -621 0
-599 -622 0
-599 -623 0
-599 -624 0
-599 -625 0
-599 -626 0
-599 -627 0
-599 -628 0
-599 -629 0
-599 -630 0
-599 -631 0
-599 -632 0
-599 -633 0
-599 -634 0
-599 -635 0
-599 -636 0
-599 -637 0
-599 -638 0
-599 -639 0
-599 -640 0
-599 -641 0
-599 -642 0
-599 -643 0
-599 -644 0
-599 -645 0
-599 -646 0
-599 -647 0
-599 -648 0
-599 -649 0
-599 -650 0
-599 -651 0
-599 -652 0
-599 -653 0
-599 -654 0
-599 -655 0
-599 -656 0
-599 -657 0
-599 -658 0
-599 -659 0
-599 -660 0
-599 -661 0
-599 -662 0
-599 -663 0
-599 -664 0
-600 -601 0
-600 -602 0
-600 -603 0
-600 -604 0
-600 -605 0
-600 -606 0
-600 -607 0
-600 -608 0
-600 -609 0
-600 -610 0
-600 -611 0
-600 -612 0
-600 -613 0
-600 -614 0
-600 -615 0
-600 -616 0
-600 -617 0
-600 -618 0
-600 -619 0
-600 -620 0
-600 -621 0
-600 -622 0
-600 -623 0
-600 -624 0
-600 -625 0
-600 -626 0
-600 -627 0
-600 -628 0
-600 -629 0
-600 -630 0
-600 -631 0
-600 -632 0
-600 -633 0
-600 -634 0
-600 -635 0
-600 -636 0
-600 -637 0
-600 -638 0
-600 -639 0
-600 -640 0
-600 -641 0
-600 -642 0
-600 -643 0
-600 -644 0
-600 -645 0
-600 -646 0
-600 -647 0
-600 -648 0
-600 -649 0
-600 -650 0
-600 -651 0
-600 -652 0
-600 -653 0
-600 -654 0
-600 -655 0
-600 -656 0
-600 -657 0
-600 -658 0
-600 -659 0
-600 -660 0
-600 -661 0
-600 -662 0
-600 -663 0
-600 -664 0
-601 -602 0
-601 -603 0
-601 -604 0
-601 -605 0
-601 -606 0
-601 -607 0
-601 -608 0
-601 -609 0
-601 -610 0
-601 -611 0
-601 -612 0
-601 -613 0
-601 -614 0
-601 -615 0
-601 -616 0
-601 -617 0
-601 -618 0
-601 -619 0
-601 -620 0
-601 -621 0
-601 -622 0
-601 -623 0
-601 -624 0
-601 -625 0
-601 -626 0
-601 -627 0
-601 -628 0
-601 -629 0
-601 -630 0
-601 -631 0
-601 -632 0
-601 -633 0
-601 -634 0
-601 -635 0
-601 -636 0
-601 -637 0
-601 -638 0
-601 -639 0
-601 -640 0
-601 -641 0
-601 -642 0
-601 -643 0
-601 -644 0
-601 -645 0
-601 -646 0
-601 -647 0
-601 -648 0
-601 -649 0
-601 -650 0
-601 -651 0
-601 -652 0
-601 -653 0
-601 -654 0
-601 -655 0
-601 -656 0
-601 -657 0
-601 -658 0
-601 -659 0
-601 -660 0
-601 -661 0
-601 -662 0
-601 -663 0
-601 -664 0
-602 -603 0
-602 -604 0
-602 -605 0
-602 -606 0
-602 -607 0
-602 -608 0
-602 -609 0
-602 -610 0
-602 -611 0
-602 -612 0
-602 -613 0
-602 -614 0
-602 -615 0
-602 -616 0
-602 -617 0
-602 -618 0
-602 -619 0
-602 -620 0
-602 -621 0
-602 -622 0
-602 -623 0
-602 -624 0
-602 -625 0
-602 -626 0
-602 -627 0
-602 -628 0
-602 -629 0
-602 -630 0
-602 -631 0
-602 -632 0
-602 -633 0
-602 -634 0
-602 -635 0
-602 -636 0
-602 -637 0
-602 -638 0
-602 -639 0
-602 -640 0
-602 -641 0
-602 -642 0
-602 -643 0
-602 -644 0
-602 -645 0
-602 -646 0
-602 -647 0
-602 -648 0
-602 -649 0
-602 -650 0
-602 -651 0
-602 -652 0
-602 -653 0
-602 -654 0
-602 -655 0
-602 -656 0
-602 -657 0
-602 -658 0
-602 -659 0
-602 -660 0
-602 -661 0
-602 -662 0
-602 -663 0
-602 -664 0
-603 -604 0
-603 -605 0
-603 -606 0
-603 -607 0
-603 -608 0
-603 -609 0
-603 -610 0
-603 -611 0
-603 -612 0
-603 -613 0
-603 -614 0
-603 -615 0
-603 -616 0
-603 -617 0
-603 -618 0
-603 -619 0
-603 -620 0
-603 -621 0
-603 -622 0
-603 -623 0
-603 -624 0
-603 -625 0
-603 -626 0
-603 -627 0
-603 -628 0
-603 -629 0
-603 -630 0
-603 -631 0
-603 -632 0
-603 -633 0
-603 -634 0
-603 -635 0
-603 -636 0
-603 -637 0
-603 -638 0
-603 -639 0
-603 -640 0
-603 -641 0
-603 -642 0
-603 -643 0
-603 -644 0
-603 -645 0
-603 -646 0
-603 -647 0
-603 -648 0
-603 -649 0
-603 -650 0
-603 -651 0
-603 -652 0
-603 -653 0
-603 -654 0
-603 -655 0
-603 -656 0
-603 -657 0
-603 -658 0
-603 -659 0
-603 -660 0
-603 -661 0
-603 -662 0
-603 -663 0
-603 -664 0
-604 -605 0
-604 -606 0
-604 -607 0
-604 -608 0
-604 -609 0
-604 -610 0
-604 -611 0
-604 -612 0
-604 -613 0
-604 -614 0
-604 -615 0
-604 -616 0
-604 -617 0
-604 -618 0
-604 -619 0
-604 -620 0
-604 -621 0
-604 -622 0
-604 -623 0
-604 -624 0
-604 -625 0
-604 -626 0
-604 -627 0
-604 -628 0
-604 -629 0
-604 -630 0
-604 -631 0
-604 -632 0
-604 -633 0
-604 -634 0
-604 -635 0
-604 -636 0
-604 -637 0
-604 -638 0
-604 -639 0
-604 -640 0
-604 -641 0
-604 -642 0
-604 -643 0
-604 -644 0
-604 -645 0
-604 -646 0
-604 -647 0
-604 -648 0
-604 -649 0
-604 -650 0
-604 -651 0
-604 -652 0
-604 -653 0
-604 -654 0
-604 -655 0
-604 -656 0
-604 -657 0
-604 -658 0
-604 -659 0
-604 -660 0
-604 -661 0
-604 -662 0
-604 -663 0
-604 -664 0
-605 -606 0
-605 -607 0
-605 -608 0
-605 -609 0
-605 -610 0
-605 -611 0
-605 -612 0
-605 -613 0
-605 -614 0
-605 -615 0
-605 -616 0
-605 -617 0
-605 -618 0
-605 -619 0
-605 -620 0
-605 -621 0
-605 -622 0
-605 -623 0
-605 -624 0
-605 -625 0
-605 -626 0
-605 -627 0
-605 -628 0
-605 -629 0
-605 -630 0
-605 -631 0
-605 -632 0
-605 -633 0
-605 -634 0
-605 -635 0
-605 -636 0
-605 -637 0
-605 -638 0
-605 -639 0
-605 -640 0
-605 -641 0
-605 -642 0
-605 -643 0
-605 -644 0
-605 -645 0
-605 -646 0
-605 -647 0
-605 -648 0
-605 -649 0
-605 -650 0
-605 -651 0
-605 -652 0
-605 -653 0
-605 -654 0
-605 -655 0
-605 -656 0
-605 -657 0
-605 -658 0
-605 -659 0
-605 -660 0
-605 -661 0
-605 -662 0
-605 -663 0
-605 -664 0
-606 -607 0
-606 -608 0
-606 -609 0
-606 -610 0
-606 -611 0
-606 -612 0
-606 -613 0
-606 -614 0
-606 -615 0
-606 -616 0
-606 -617 0
-606 -618 0
-606 -619 0
-606 -620 0
-606 -621 0
-606 -622 0
-606 -623 0
-606 -624 0
-606 -625 0
-606 -626 0
-606 -627 0
-606 -628 0
-606 -629 0
-606 -630 0
-606 -631 0
-606 -632 0
-606 -633 0
-606 -634 0
-606 -635 0
-606 -636 0
-606 -637 0
-606 -638 0
-606 -639 0
-606 -640 0
-606 -641 0
-606 -642 0
-606 -643 0
-606 -644 0
-606 -645 0
-606 -646 0
-606 -647 0
-606 -648 0
-606 -649 0
-606 -650 0
-606 -651 0
-606 -652 0
-606 -653 0
-606 -654 0
-606 -655 0
-606 -656 0
-606 -657 0
-606 -658 0
-606 -659 0
-606 -660 0
-606 -661 0
-606 -662 0
-606 -663 0
-606 -664 0
-607 -608 0
-607 -609 0
-607 -610 0
-607 -611 0
-607 -612 0
-607 -613 0
-607 -614 0
-607 -615 0
-607 -616 0
-607 -617 0
-607 -618 0
-607 -619 0
-607 -620 0
-607 -621 0
-607 -622 0
-607 -623 0
-607 -624 0
-607 -625 0
-607 -626 0
-607 -627 0
-607 -628 0
-607 -629 0
-607 -630 0
-607 -631 0
-607 -632 0
-607 -633 0
-607 -634 0
-607 -635 0
-607 -636 0
-607 -637 0
-607 -638 0
-607 -639 0
-607 -640 0
-607 -641 0
-607 -642 0
-607 -643 0
-607 -644 0
-607 -645 0
-607 -646 0
-607 -647 0
-607 -648 0
-607 -649 0
-607 -650 0
-607 -651 0
-607 -652 0
-607 -653 0
-607 -654 0
-607 -655 0
-607 -656 0
-607 -657 0
-607 -658 0
-607 -659 0
-607 -660 0
-607 -661 0
-607 -662 0
-607 -663 0
-607 -664 0
-608 -609 0
-608 -610 0
-608 -611 0
-608 -612 0
-608 -613 0
-608 -614 0
-608 -615 0
-608 -616 0
-608 -617 0
-608 -618 0
-608 -619 0
-608 -620 0
-608 -621 0
-608 -622 0
-608 -623 0
-608 -624 0
-608 -625 0
-608 -626 0
-608 -627 0
-608 -628 0
-608 -629 0
-608 -630 0
-608 -631 0
-608 -632 0
-608 -633 0
-608 -634 0
-608 -635 0
-608 -636 0
-608 -637 0
-608 -638 0
-608 -639 0
-608 -640 0
-608 -641 0
-608 -642 0
-608 -643 0
-608 -644 0
-608 -645 0
-608 -646 0
-608 -647 0
-608 -648 0
-608 -649 0
-608 -650 0
-608 -651 0
-608 -652 0
-608 -653 0
-608 -654 0
-608 -655 0
-608 -656 0
-608 -657 0
-608 -658 0
-608 -659 0
-608 -660 0
-608 -661 0
-608 -662 0
-608 -663 0
-608 -664 0
-609 -610 0
-609 -611 0
-609 -612 0
-609 -613 0
-609 -614 0
-609 -615 0
-609 -616 0
-609 -617 0
-609 -618 0
-609 -619 0
-609 -620 0
-609 -621 0
-609 -622 0
-609 -623 0
-609 -624 0
-609 -625 0
-609 -626 0
-609 -627 0
-609 -628 0
-609 -629 0
-609 -630 0
-609 -631 0
-609 -632 0
-609 -633 0
-609 -634 0
-609 -635 0
-609 -636 0
-609 -637 0
-609 -638 0
-609 -639 0
-609 -640 0
-609 -641 0
-609 -642 0
-609 -643 0
-609 -644 0
-609 -645 0
-609 -646 0
-609 -647 0
-609 -648 0
-609 -649 0
-609 -650 0
-609 -651 0
-609 -652 0
-609 -653 0
-609 -654 0
-609 -655 0
-609 -656 0
-609 -657 0
-609 -658 0
-609 -659 0
-609 -660 0
-609 -661 0
-609 -662 0
-609 -663 0
-609 -664 0
-610 -611 0
-610 -612 0
-610 -613 0
-610 -614 0
-610 -615 0
-610 -616 0
-610 -617 0
-610 -618 0
-610 -619 0
-610 -620 0
-610 -621 0
-610 -622 0
-610 -623 0
-610 -624 0
-610 -625 0
-610 -626 0
-610 -627 0
-610 -628 0
-610 -629 0
-610 -630 0
-610 -631 0
-610 -632 0
-610 -633 0
-610 -634 0
-610 -635 0
-610 -636 0
-610 -637 0
-610 -638 0
-610 -639 0
-610 -640 0
-610 -641 0
-610 -642 0
-610 -643 0
-610 -644 0
-610 -645 0
-610 -646 0
-610 -647 0
-610 -648 0
-610 -649 0
-610 -650 0
-610 -651 0
-610 -652 0
-610 -653 0
-610 -654 0
-610 -655 0
-610 -656 0
-610 -657 0
-610 -658 0
-610 -659 0
-610 -660 0
-610 -661 0
-610 -662 0
-610 -663 0
-610 -664 0
-611 -612 0
-611 -613 0
-611 -614 0
-611 -615 0
-611 -616 0
-611 -617 0
-611 -618 0
-611 -619 0
-611 -620 0
-611 -621 0
-611 -622 0
-611 -623 0
-611 -624 0
-611 -625 0
-611 -626 0
-611 -627 0
-611 -628 0
-611 -629 0
-611 -630 0
-611 -631 0
-611 -632 0
-611 -633 0
-611 -634 0
-611 -635 0
-611 -636 0
-611 -637 0
-611 -638 0
-611 -639 0
-611 -640 0
-611 -641 0
-611 -642 0
-611 -643 0
-611 -644 0
-611 -645 0
-611 -646 0
-611 -647 0
-611 -648 0
-611 -649 0
-611 -650 0
-611 -651 0
-611 -652 0
-611 -653 0
-611 -654 0
-611 -655 0
-611 -656 0
-611 -657 0
-611 -658 0
-611 -659 0
-611 -660 0
-611 -661 0
-611 -662 0
-611 -663 0
-611 -664 0
-612 -613 0
-612 -614 0
-612 -615 0
-612 -616 0
-612 -617 0
-612 -618 0
-612 -619 0
-612 -620 0
-612 -621 0
-612 -622 0
-612 -623 0
-612 -624 0
-612 -625 0
-612 -626 0
-612 -627 0
-612 -628 0
-612 -629 0
-612 -630 0
-612 -631 0
-612 -632 0
-612 -633 0
-612 -634 0
-612 -635 0
-612 -636 0
-612 -637 0
-612 -638 0
-612 -639 0
-612 -640 0
-612 -641 0
-612 -642 0
-612 -643 0
-612 -644 0
-612 -645 0
-612 -646 0
-612 -647 0
-612 -648 0
-612 -649 0
-612 -650 0
-612 -651 0
-612 -652 0
-612 -653 0
-612 -654 0
-612 -655 0
-612 -656 0
-612 -657 0
-612 -658 0
-612 -659 0
-612 -660 0
-612 -661 0
-612 -662 0
-612 -663 0
-612 -664 0
-613 -614 0
-613 -615 0
-613 -616 0
-613 -617 0
-613 -618 0
-613 -619 0
-613 -620 0
-613 -621 0
-613 -622 0
-613 -623 0
-613 -624 0
-613 -625 0
-613 -626 0
-613 -627 0
-613 -628 0
-613 -629 0
-613 -630 0
-613 -631 0
-613 -632 0
-613 -633 0
-613 -634 0
-613 -635 0
-613 -636 0
-613 -637 0
-613 -638 0
-613 -639 0
-613 -640 0
-613 -641 0
-613 -642 0
-613 -643 0
-613 -644 0
-613 -645 0
-613 -646 0
-613 -647 0
-613 -648 0
-613 -649 0
-613 -650 0
-613 -651 0
-613 -652 0
-613 -653 0
-613 -654 0
-613 -655 0
-613 -656 0
-613 -657 0
-613 -658 0
-613 -659 0
-613 -660 0
-613 -661 0
-613 -662 0
-613 -663 0
-613 -664 0
-614 -615 0
-614 -616 0
-614 -617 0
-614 -618 0
-614 -619 0
-614 -620 0
-614 -621 0
-614 -622 0
-614 -623 0
-614 -624 0
-614 -625 0
-614 -626 0
-614 -627 0
-614 -628 0
-614 -629 0
-614 -630 0
-614 -631 0
-614 -632 0
-614 -633 0
-614 -634 0
-614 -635 0
-614 -636 0
-614 -637 0
-614 -638 0
-614 -639 0
-614 -640 0
-614 -641 0
-614 -642 0
-614 -643 0
-614 -644 0
-614 -645 0
-614 -646 0
-614 -647 0
-614 -648 0
-614 -649 0
-614 -650 0
-614 -651 0
-614 -652 0
-614 -653 0
-614 -654 0
-614 -655 0
-614 -656 0
-614 -657 0
-614 -658 0
-614 -659 0
-614 -660 0
-614 -661 0
-614 -662 0
-614 -663 0
-614 -664 0
-615 -616 0
-615 -617 0
-615 -618 0
-615 -619 0
-615 -620 0
-615 -621 0
-615 -622 0
-615 -623 0
-615 -624 0
-615 -625 0
-615 -626 0
-615 -627 0
-615 -628 0
-615 -629 0
-615 -630 0
-615 -631 0
-615 -632 0
-615 -633 0
-615 -634 0
-615 -635 0
-615 -636 0
-615 -637 0
-615 -638 0
-615 -639 0
-615 -640 0
-615 -641 0
-615 -642 0
-615 -643 0
-615 -644 0
-615 -645 0
-615 -646 0
-615 -647 0
-615 -648 0
-615 -649 0
-615 -650 0
-615 -651 0
-615 -652 0
-615 -653 0
-615 -654 0
-615 -655 0
-615 -656 0
-615 -657 0
-615 -658 0
-615 -659 0
-615 -660 0
-615 -661 0
-615 -662 0
-615 -663 0
-615 -664 0
-616 -617 0
-616 -618 0
-616 -619 0
-616 -620 0
-616 -621 0
-616 -622 0
-616 -623 0
-616 -624 0
-616 -625 0
-616 -626 0
-616 -627 0
-616 -628 0
-616 -629 0
-616 -630 0
-616 -631 0
-616 -632 0
-616 -633 0
-616 -634 0
-616 -635 0
-616 -636 0
-616 -637 0
-616 -638 0
-616 -639 0
-616 -640 0
-616 -641 0
-616 -642 0
-616 -643 0
-616 -644 0
-616 -645 0
-616 -646 0
-616 -647 0
-616 -648 0
-616 -649 0
-616 -650 0
-616 -651 0
-616 -652 0
-616 -653 0
-616 -654 0
-616 -655 0
-616 -656 0
-616 -657 0
-616 -658 0
-616 -659 0
-616 -660 0
-616 -661 0
-616 -662 0
-616 -663 0
-616 -664 0
-617 -618 0
-617 -619 0
-617 -620 0
-617 -621 0
-617 -622 0
-617 -623 0
-617 -624 0
-617 -625 0
-617 -626 0
-617 -627 0
-617 -628 0
-617 -629 0
-617 -630 0
-617 -631 0
-617 -632 0
-617 -633 0
-617 -634 0
-617 -635 0
-617 -636 0
-617 -637 0
-617 -638 0
-617 -639 0
-617 -640 0
-617 -641 0
-617 -642 0
-617 -643 0
-617 -644 0
-617 -645 0
-617 -646 0
-617 -647 0
-617 -648 0
-617 -649 0
-617 -650 0
-617 -651 0
-617 -652 0
-617 -653 0
-617 -654 0
-617 -655 0
-617 -656 0
-617 -657 0
-617 -658 0
-617 -659 0
-617 -660 0
-617 -661 0
-617 -662 0
-617 -663 0
-617 -664 0
-618 -619 0
-618 -620 0
-618 -621 0
-618 -622 0
-618 -623 0
-618 -624 0
-618 -625 0
-618 -626 0
-618 -627 0
-618 -628 0
-618 -629 0
-618 -630 0
-618 -631 0
-618 -632 0
-618 -633 0
-618 -634 0
-618 -635 0
-618 -636 0
-618 -637 0
-618 -638 0
-618 -639 0
-618 -640 0
-618 -641 0
-618 -642 0
-618 -643 0
-618 -644 0
-618 -645 0
-618 -646 0
-618 -647 0
-618 -648 0
-618 -649 0
-618 -650 0
-618 -651 0
-618 -652 0
-618 -653 0
-618 -654 0
-618 -655 0
-618 -656 0
-618 -657 0
-618 -658 0
-618 -659 0
-618 -660 0
-618 -661 0
-618 -662 0
-618 -663 0
-618 -664 0
-619 -620 0
-619 -621 0
-619 -622 0
-619 -623 0
-619 -624 0
-619 -625 0
-619 -626 0
-619 -627 0
-619 -628 0
-619 -629 0
-619 -630 0
-619 -631 0
-619 -632 0
-619 -633 0
-619 -634 0
-619 -635 0
-619 -636 0
-619 -637 0
-619 -638 0
-619 -639 0
-619 -640 0
-619 -641 0
-619 -642 0
-619 -643 0
-619 -644 0
-619 -645 0
-619 -646 0
-619 -647 0
-619 -648 0
-619 -649 0
-619 -650 0
-619 -651 0
-619 -652 0
-619 -653 0
-619 -654 0
-619 -655 0
-619 -656 0
-619 -657 0
-619 -658 0
-619 -659 0
-619 -660 0
-619 -661 0
-619 -662 0
-619 -663 0
-619 -664 0
-620 -621 0
-620 -622 0
-620 -623 0
-620 -624 0
-620 -625 0
-620 -626 0
-620 -627 0
-620 -628 0
-620 -629 0
-620 -630 0
-620 -631 0
-620 -632 0
-620 -633 0
-620 -634 0
-620 -635 0
-620 -636 0
-620 -637 0
-620 -638 0
-620 -639 0
-620 -640 0
-620 -641 0
-620 -642 0
-620 -643 0
-620 -644 0
-620 -645 0
-620 -646 0
-620 -647 0
-620 -648 0
-620 -649 0
-620 -650 0
-620 -651 0
-620 -652 0
-620 -653 0
-620 -654 0
-620 -655 0
-620 -656 0
-620 -657 0
-620 -658 0
-620 -659 0
-620 -660 0
-620 -661 0
-620 -662 0
-620 -663 0
-620 -664 0
-621 -622 0
-621 -623 0
-621 -624 0
-621 -625 0
-621 -626 0
-621 -627 0
-621 -628 0
-621 -629 0
-621 -630 0
-621 -631 0
-621 -632 0
-621 -633 0
-621 -634 0
-621 -635 0
-621 -636 0
-621 -637 0
-621 -638 0
-621 -639 0
-621 -640 0
-621 -641 0
-621 -642 0
-621 -643 0
-621 -644 0
-621 -645 0
-621 -646 0
-621 -647 0
-621 -648 0
-621 -649 0
-621 -650 0
-621 -651 0
-621 -652 0
-621 -653 0
-621 -654 0
-621 -655 0
-621 -656 0
-621 -657 0
-621 -658 0
-621 -659 0
-621 -660 0
-621 -661 0
-621 -662 0
-621 -663 0
-621 -664 0
-622 -623 0
-622 -624 0
-622 -625 0
-622 -626 0
-622 -627 0
-622 -628 0
-622 -629 0
-622 -630 0
-622 -631 0
-622 -632 0
-622 -633 0
-622 -634 0
-622 -635 0
-622 -636 0
-622 -637 0
-622 -638 0
-622 -639 0
-622 -640 0
-622 -641 0
-622 -642 0
-622 -643 0
-622 -644 0
-622 -645 0
-622 -646 0
-622 -647 0
-622 -648 0
-622 -649 0
-622 -650 0
-622 -651 0
-622 -652 0
-622 -653 0
-622 -654 0
-622 -655 0
-622 -656 0
-622 -657 0
-622 -658 0
-622 -659 0
-622 -660 0
-622 -661 0
-622 -662 0
-622 -663 0
-622 -664 0
-623 -624 0
-623 -625 0
-623 -626 0
-623 -627 0
-623 -628 0
-623 -629 0
-623 -630 0
-623 -631 0
-623 -632 0
-623 -633 0
-623 -634 0
-623 -635 0
-623 -636 0
-623 -637 0
-623 -638 0
-623 -639 0
-623 -640 0
-623 -641 0
-623 -642 0
-623 -643 0
-623 -644 0
-623 -645 0
-623 -646 0
-623 -647 0
-623 -648 0
-623 -649 0
-623 -650 0
-623 -651 0
-623 -652 0
-623 -653 0
-623 -654 0
-623 -655 0
-623 -656 0
-623 -657 0
-623 -658 0
-623 -659 0
-623 -660 0
-623 -661 0
-623 -662 0
-623 -663 0
-623 -664 0
-624 -625 0
-624 -626 0
-624 -627 0
-624 -628 0
-624 -629 0
-624 -630 0
-624 -631 0
-624 -632 0
-624 -633 0
-624 -634 0
-624 -635 0
-624 -636 0
-624 -637 0
-624 -638 0
-624 -639 0
-624 -640 0
-624 -641 0
-624 -642 0
-624 -643 0
-624 -644 0
-624 -645 0
-624 -646 0
-624 -647 0
-624 -648 0
-624 -649 0
-624 -650 0
-624 -651 0
-624 -652 0
-624 -653 0
-624 -654 0
-624 -655 0
-624 -656 0
-624 -657 0
-624 -658 0
-624 -659 0
-624 -660 0
-624 -661 0
-624 -662 0
-624 -663 0
-624 -664 0
-625 -626 0
-625 -627 0
-625 -628 0
-625 -629 0
-625 -630 0
-625 -631 0
-625 -632 0
-625 -633 0
-625 -634 0
-625 -635 0
-625 -636 0
-625 -637 0
-625 -638 0
-625 -639 0
-625 -640 0
-625 -641 0
-625 -642 0
-625 -643 0
-625 -644 0
-625 -645 0
-625 -646 0
-625 -647 0
-625 -648 0
-625 -649 0
-625 -650 0
-625 -651 0
-625 -652 0
-625 -653 0
-625 -654 0
-625 -655 0
-625 -656 0
-625 -657 0
-625 -658 0
-625 -659 0
-625 -660 0
-625 -661 0
-625 -662 0
-625 -663 0
-625 -664 0
-626 -627 0
-626 -628 0
-626 -629 0
-626 -630 0
-626 -631 0
-626 -632 0
-626 -633 0
-626 -634 0
-626 -635 0
-626 -636 0
-626 -637 0
-626 -638 0
-626 -639 0
-626 -640 0
-626 -641 0
-626 -642 0
-626 -643 0
-626 -644 0
-626 -645 0
-626 -646 0
-626 -647 0
-626 -648 0
-626 -649 0
-626 -650 0
-626 -651 0
-626 -652 0
-626 -653 0
-626 -654 0
-626 -655 0
-626 -656 0
-626 -657 0
-626 -658 0
-626 -659 0
-626 -660 0
-626 -661 0
-626 -662 0
-626 -663 0
-626 -664 0
-627 -628 0
-627 -629 0
-627 -630 0
-627 -631 0
-627 -632 0
-627 -633 0
-627 -634 0
-627 -635 0
-627 -636 0
-627 -637 0
-627 -638 0
-627 -639 0
-627 -640 0
-627 -641 0
-627 -642 0
-627 -643 0
-627 -644 0
-627 -645 0
-627 -646 0
-627 -647 0
-627 -648 0
-627 -649 0
-627 -650 0
-627 -651 0
-627 -652 0
-627 -653 0
-627 -654 0
-627 -655 0
-627 -656 0
-627 -657 0
-627 -658 0
-627 -659 0
-627 -660 0
-627 -661 0
-627 -662 0
-627 -663 0
-627 -664 0
-628 -629 0
-628 -630 0
-628 -631 0
-628 -632 0
-628 -633 0
-628 -634 0
-628 -635 0
-628 -636 0
-628 -637 0
-628 -638 0
-628 -639 0
-628 -640 0
-628 -641 0
-628 -642 0
-628 -643 0
-628 -644 0
-628 -645 0
-628 -646 0
-628 -647 0
-628 -648 0
-628 -649 0
-628 -650 0
-628 -651 0
-628 -652 0
-628 -653 0
-628 -654 0
-628 -655 0
-628 -656 0
-628 -657 0
-628 -658 0
-628 -659 0
-628 -660 0
-628 -661 0
-628 -662 0
-628 -663 0
-628 -664 0
-629 -630 0
-629 -631 0
-629 -632 0
-629 -633 0
-629 -634 0
-629 -635 0
-629 -636 0
-629 -637 0
-629 -638 0
-629 -639 0
-629 -640 0
-629 -641 0
-629 -642 0
-629 -643 0
-629 -644 0
-629 -645 0
-629 -646 0
-629 -647 0
-629 -648 0
-629 -649 0
-629 -650 0
-629 -651 0
-629 -652 0
-629 -653 0
-629 -654 0
-629 -655 0
-629 -656 0
-629 -657 0
-629 -658 0
-629 -659 0
-629 -660 0
-629 -661 0
-629 -662 0
-629 -663 0
-629 -664 0
-630 -631 0
-630 -632 0
-630 -633 0
-630 -634 0
-630 -635 0
-630 -636 0
-630 -637 0
-630 -638 0
-630 -639 0
-630 -640 0
-630 -641 0
-630 -642 0
-630 -643 0
-630 -644 0
-630 -645 0
-630 -646 0
-630 -647 0
-630 -648 0
-630 -649 0
-630 -650 0
-630 -651 0
-630 -652 0
-630 -653 0
-630 -654 0
-630 -655 0
-630 -656 0
-630 -657 0
-630 -658 0
-630 -659 0
-630 -660 0
-630 -661 0
-630 -662 0
-630 -663 0
-630 -664 0
-631 -632 0
-631 -633 0
-631 -634 0
-631 -635 0
-631 -636 0
-631 -637 0
-631 -638 0
-631 -639 0
-631 -640 0
-631 -641 0
-631 -642 0
-631 -643 0
-631 -644 0
-631 -645 0
-631 -646 0
-631 -647 0
-631 -648 0
-631 -649 0
-631 -650 0
-631 -651 0
-631 -652 0
-631 -653 0
-631 -654 0
-631 -655 0
-631 -656 0
-631 -657 0
-631 -658 0
-631 -659 0
-631 -660 0
-631 -661 0
-631 -662 0
-631 -663 0
-631 -664 0
-632 -633 0
-632 -634 0
-632 -635 0
-632 -636 0
-632 -637 0
-632 -638 0
-632 -639 0
-632 -640 0
-632 -641 0
-632 -642 0
-632 -643 0
-632 -644 0
-632 -645 0
-632 -646 0
-632 -647 0
-632 -648 0
-632 -649 0
-632 -650 0
-632 -651 0
-632 -652 0
-632 -653 0
-632 -654 0
-632 -655 0
-632 -656 0
-632 -657 0
-632 -658 0
-632 -659 0
-632 -660 0
-632 -661 0
-632 -662 0
-632 -663 0
-632 -664 0
-633 -634 0
-633 -635 0
-633 -636 0
-633 -637 0
-633 -638 0
-633 -639 0
-633 -640 0
-633 -641 0
-633 -642 0
-633 -643 0
-633 -644 0
-633 -645 0
-633 -646 0
-633 -647 0
-633 -648 0
-633 -649 0
-633 -650 0
-633 -651 0
-633 -652 0
-633 -653 0
-633 -654 0
-633 -655 0
-633 -656 0
-633 -657 0
-633 -658 0
-633 -659 0
-633 -660 0
-633 -661 0
-633 -662 0
-633 -663 0
-633 -664 0
-634 -635 0
-634 -636 0
-634 -637 0
-634 -638 0
-634 -639 0
-634 -640 0
-634 -641 0
-634 -642 0
-634 -643 0
-634 -644 0
-634 -645 0
-634 -646 0
-634 -647 0
-634 -648 0
-634 -649 0
-634 -650 0
-634 -651 0
-634 -652 0
-634 -653 0
-634 -654 0
-634 -655 0
-634 -656 0
-634 -657 0
-634 -658 0
-634 -659 0
-634 -660 0
-634 -661 0
-634 -662 0
-634 -663 0
-634 -664 0
-635 -636 0
-635 -637 0
-635 -638 0
-635 -639 0
-635 -640 0
-635 -641 0
-635 -642 0
-635 -643 0
-635 -644 0
-635 -645 0
-635 -646 0
-635 -647 0
-635 -648 0
-635 -649 0
-635 -650 0
-635 -651 0
-635 -652 0
-635 -653 0
-635 -654 0
-635 -655 0
-635 -656 0
-635 -657 0
-635 -658 0
-635 -659 0
-635 -660 0
-635 -661 0
-635 -662 0
-635 -663 0
-635 -664 0
-636 -637 0
-636 -638 0
-636 -639 0
-636 -640 0
-636 -641 0
-636 -642 0
-636 -643 0
-636 -644 0
-636 -645 0
-636 -646 0
-636 -647 0
-636 -648 0
-636 -649 0
-636 -650 0
-636 -651 0
-636 -652 0
-636 -653 0
-636 -654 0
-636 -655 0
-636 -656 0
-636 -657 0
-636 -658 0
-636 -659 0
-636 -660 0
-636 -661 0
-636 -662 0
-636 -663 0
-636 -664 0
-637 -638 0
-637 -639 0
-637 -640 0
-637 -641 0
-637 -642 0
-637 -643 0
-637 -644 0
-637 -645 0
-637 -646 0
-637 -647 0
-637 -648 0
-637 -649 0
-637 -650 0
-637 -651 0
-637 -652 0
-637 -653 0
-637 -654 0
-637 -655 0
-637 -656 0
-637 -657 0
-637 -658 0
-637 -659 0
-637 -660 0
-637 -661 0
-637 -662 0
-637 -663 0
-637 -664 0
-638 -639 0
-638 -640 0
-638 -641 0
-638 -642 0
-638 -643 0
-638 -644 0
-638 -645 0
-638 -646 0
-638 -647 0
-638 -648 0
-638 -649 0
-638 -650 0
-638 -651 0
-638 -652 0
-638 -653 0
-638 -654 0
-638 -655 0
-638 -656 0
-638 -657 0
-638 -658 0
-638 -659 0
-638 -660 0
-638 -661 0
-638 -662 0
-638 -663 0
-638 -664 0
-639 -640 0
-639 -641 0
-639 -642 0
-639 -643 0
-639 -644 0
-639 -645 0
-639 -646 0
-639 -647 0
-639 -648 0
-639 -649 0
-639 -650 0
-639 -651 0
-639 -652 0
-639 -653 0
-639 -654 0
-639 -655 0
-639 -656 0
-639 -657 0
-639 -658 0
-639 -659 0
-639 -660 0
-639 -661 0
-639 -662 0
-639 -663 0
-639 -664 0
-640 -641 0
-640 -642 0
-640 -643 0
-640 -644 0
-640 -645 0
-640 -646 0
-640 -647 0
-640 -648 0
-640 -649 0
-640 -650 0
-640 -651 0
-640 -652 0
-640 -653 0
-640 -654 0
-640 -655 0
-640 -656 0
-640 -657 0
-640 -658 0
-640 -659 0
-640 -660 0
-640 -661 0
-640 -662 0
-640 -663 0
-640 -664 0
-641 -642 0
-641 -643 0
-641 -644 0
-641 -645 0
-641 -646 0
-641 -647 0
-641 -648 0
-641 -649 0
-641 -650 0
-641 -651 0
-641 -652 0
-641 -653 0
-641 -654 0
-641 -655 0
-641 -656 0
-641 -657 0
-641 -658 0
-641 -659 0
-641 -660 0
-641 -661 0
-641 -662 0
-641 -663 0
-641 -664 0
-642 -643 0
-642 -644 0
-642 -645 0
-642 -646 0
-642 -647 0
-642 -648 0
-642 -649 0
-642 -650 0
-642 -651 0
-642 -652 0
-642 -653 0
-642 -654 0
-642 -655 0
-642 -656 0
-642 -657 0
-642 -658 0
-642 -659 0
-642 -660 0
-642 -661 0
-642 -662 0
-642 -663 0
-642 -664 0
-643 -644 0
-643 -645 0
-643 -646 0
-643 -647 0
-643 -648 0
-643 -649 0
-643 -650 0
-643 -651 0
-643 -652 0
-643 -653 0
-643 -654 0
-643 -655 0
-643 -656 0
-643 -657 0
-643 -658 0
-643 -659 0
-643 -660 0
-643 -661 0
-643 -662 0
-643 -663 0
-643 -664 0
-644 -645 0
-644 -646 0
-644 -647 0
-644 -648 0
-644 -649 0
-644 -650 0
-644 -651 0
-644 -652 0
-644 -653 0
-644 -654 0
-644 -655 0
-644 -656 0
-644 -657 0
-644 -658 0
-644 -659 0
-644 -660 0
-644 -661 0
-644 -662 0
-644 -663 0
-644 -664 0
-645 -646 0
-645 -647 0
-645 -648 0
-645 -649 0
-645 -650 0
-645 -651 0
-645 -652 0
-645 -653 0
-645 -654 0
-645 -655 0
-645 -656 0
-645 -657 0
-645 -658 0
-645 -659 0
-645 -660 0
-645 -661 0
-645 -662 0
-645 -663 0
-645 -664 0
-646 -647 0
-646 -648 0
-646 -649 0
-646 -650 0
-646 -651 0
-646 -652 0
-646 -653 0
-646 -654 0
-646 -655 0
-646 -656 0
-646 -657 0
-646 -658 0
-646 -659 0
-646 -660 0
-646 -661 0
-646 -662 0
-646 -663 0
-646 -664 0
-647 -648 0
-647 -649 0
-647 -650 0
-647 -651 0
-647 -652 0
-647 -653 0
-647 -654 0
-647 -655 0
-647 -656 0
-647 -657 0
-647 -658 0
-647 -659 0
-647 -660 0
-647 -661 0
-647 -662 0
-647 -663 0
-647 -664 0
-648 -649 0
-648 -650 0
-648 -651 0
-648 -652 0
-648 -653 0
-648 -654 0
-648 -655 0
-648 -656 0
-648 -657 0
-648 -658 0
-648 -659 0
-648 -660 0
-648 -661 0
-648 -662 0
-648 -663 0
-648 -664 0
-649 -650 0
-649 -651 0
-649 -652 0
-649 -653 0
-649 -654 0
-649 -655 0
-649 -656 0
-649 -657 0
-649 -658 0
-649 -659 0
-649 -660 0
-649 -661 0
-649 -662 0
-649 -663 0
-649 -664 0
-650 -651 0
-650 -652 0
-650 -653 0
-650 -654 0
-650 -655 0
-650 -656 0
-650 -657 0
-650 -658 0
-650 -659 0
-650 -660 0
-650 -661 0
-650 -662 0
-650 -663 0
-650 -664 0
-651 -652 0
-651 -653 0
-651 -654 0
-651 -655 0
-651 -656 0
-651 -657 0
-651 -658 0
-651 -659 0
-651 -660 0
-651 -661 0
-651 -662 0
-651 -663 0
-651 -664 0
-652 -653 0
-652 -654 0
-652 -655 0
-652 -656 0
-652 -657 0
-652 -658 0
-652 -659 0
-652 -660 0
-652 -661 0
-652 -662 0
-652 -663 0
-652 -664 0
-653 -654 0
-653 -655 0
-653 -656 0
-653 -657 0
-653 -658 0
-653 -659 0
-653 -660 0
-653 -661 0
-653 -662 0
-653 -663 0
-653 -664 0
-654 -655 0
-654 -656 0
-654 -657 0
-654 -658 0
-654 -659 0
-654 -660 0
-654 -661 0
-654 -662 0
-654 -663 0
-654 -664 0
-655 -656 0
-655 -657 0
-655 -658 0
-655 -659 0
-655 -660 0
-655 -661 0
-655 -662 0
-655 -663 0
-655 -664 0
-656 -657 0
-656 -658 0
-656 -659 0
-656 -660 0
-656 -661 0
-656 -662 0
-656 -663 0
-656 -664 0
-657 -658 0
-657 -659 0
-657 -660 0
-657 -661 0
-657 -662 0
-657 -663 0
-657 -664 0
-658 -659 0
-658 -660 0
-658 -661 0
-658 -662 0
-658 -663 0
-658 -664 0
-659 -660 0
-659 -661 0
-659 -662 0
-659 -663 0
-659 -664 0
-660 -661 0
-660 -662 0
-660 -663 0
-660 -664 0
-661 -662 0
-661 -663 0
-661 -664 0
-662 -663 0
-662 -664 0
-663 -664 0
581 582 583 584 585 586 587 588 589 590 591 592 593 594 595 596 597 598 599 600 601 602 603 604 -132 173 0
581 582 583 584 585 586 587 588 589 590 591 592 593 594 595 596 597 598 599 600 601 602 603 604 -133 174 0
581 582 583 584 585 586 587 588 589 590 591 592 593 594 595 596 597 598 599 600 601 602 603 604 -134 175 0
581 582 583 584 585 586 587 588 589 590 591 592 593 594 595 596 597 598 599 600 601 602 603 604 -135 176 0
581 582 583 584 585 586 587 588 589 590 591 592 593 594 595 596 597 598 599 600 601 602 603 604 -136 177 0
581 582 583 584 585 586 587 588 589 590 591 592 593 594 595 596 597 598 599 600 601 602 603 604 -137 178 0
581 582 583 584 585 586 587 588 589 590 591 592 593 594 595 596 597 598 599 600 601 602 603 604 -138 179 0
581 582 583 584 585 586 587 588 589 590 591 592 593 594 595 596 597 598 599 600 601 602 603 604 -139 180 0
581 582 583 584 585 586 587 588 589 590 591 592 593 594 595 596 597 598 599 600 601 602 603 604 -140 181 0
581 582 583 584 585 586 587 588 589 590 591 592 593 594 595 596 597 598 599 600 601 602 603 604 -141 182 0
605 606 607 608 609 610 611 612 613 614 615 616 617 618 619 620 621 622 623 624 625 626 627 628 -142 183 0
605 606 607 608 609 610 611 612 613 614 615 616 617 618 619 620 621 622 623 624 625 626 627 628 -143 184 0
605 606 607 608 609 610 611 612 613 614 615 616 617 618 619 620 621 622 623 624 625 626 627 628 -144 185 0
605 606 607 608 609 610 611 612 613 614 615 616 617 618 619 620 621 622 623 624 625 626 627 628 -145 186 0
605 606 607 608 609 610 611 612 613 614 615 616 617 618 619 620 621 622 623 624 625 626 627 628 -146 187 0
605 606 607 608 609 610 611 612 613 614 615 616 617 618 619 620 621 622 623 624 625 626 627 628 -147 188 0
605 606 607 608 609 610 611 612 613 614 615 616 617 618 619 620 621 622 623 624 625 626 627 628 -148 189 0
605 606 607 608 609 610 611 612 613 614 615 616 617 618 619 620 621 622 623 624 625 626 627 628 -149 190 0
605 606 607 608 609 610 611 612 613 614 615 616 617 618 619 620 621 622 623 624 625 626 627 628 -150 191 0
605 606 607 608 609 610 611 612 613 614 615 616 617 618 619 620 621 622 623 624 625 626 627 628 -151 192 0
629 630 631 632 633 634 635 636 637 638 639 640 641 642 643 644 645 646 647 648 -152 193 0
629 630 631 632 633 634 635 636 637 638 639 640 641 642 643 644 645 646 647 648 -153 194 0
629 630 631 632 633 634 635 636 637 638 639 640 641 642 643 644 645 646 647 648 -154 195 0
629 630 631 632 633 634 635 636 637 638 639 640 641 642 643 644 645 646 647 648 -155 196 0
629 630 631 632 633 634 635 636 637 638 639 640 641 642 643 644 645 646 647 648 -156 197 0
629 630 631 632 633 634 635 636 637 638 639 640 641 642 643 644 645 646 647 648 -157 198 0
629 630 631 632 633 634 635 636 637 638 639 640 641 642 643 644 645 646 647 648 -158 199 0
629 630 631 632 633 634 635 636 637 638 639 640 641 642 643 644 645 646 647 648 -159 200 0
629 630 631 632 633 634 635 636 637 638 639 640 641 642 643 644 645 646 647 648 -160 201 0
649 650 651 652 653 654 655 656 657 658 659 660 661 662 663 664 -161 202 0
649 650 651 652 653 654 655 656 657 658 659 660 661 662 663 664 -162 203 0
649 650 651 652 653 654 655 656 657 658 659 660 661 662 663 664 -163 204 0
649 650 651 652 653 654 655 656 657 658 659 660 661 662 663 664 -164 205 0
649 650 651 652 653 654 655 656 657 658 659 660 661 662 663 664 -165 206 0
649 650 651 652 653 654 655 656 657 658 659 660 661 662 663 664 -166 207 0
649 650 651 652 653 654 655 656 657 658 659 660 661 662 663 664 -167 208 0
649 650 651 652 653 654 655 656 657 658 659 660 661 662 663 664 -168 209 0
-665 210 0
-665 211 0
-665 -173 0
-665 214 0
-665 -183 -189 221 0
-665 -183 -190 222 0
-665 -183 -191 223 0
-666 210 0
-666 211 0
-666 -174 0
-666 215 0
-666 -184 -189 221 0
-666 -184 -190 222 0
-666 -184 -191 223 0
-667 210 0
-667 211 0
-667 -175 0
-667 216 0
-667 -185 -189 221 0
-667 -185 -190 222 0
-667 -185 -191 223 0
-668 210 0
-668 211 0
-668 -176 0
-668 217 0
-668 -186 -189 221 0
-668 -186 -190 222 0
-668 -186 -191 223 0
-669 210 0
-669 211 0
-669 -177 0
-669 218 0
-669 -187 -189 221 0
-669 -187 -190 222 0
-669 -187 -191 223 0
-670 210 0
-670 211 0
-670 -178 0
-670 219 0
-670 -188 -189 221 0
-670 -188 -190 222 0
-670 -188 -191 223 0
-671 210 0
-671 212 0
-671 -173 0
-671 214 0
-671 -193 -198 221 0
-671 -193 -199 222 0
-671 -193 -200 223 0
-672 210 0
-672 212 0
-672 -174 0
-672 215 0
-672 -193 -198 221 0
-672 -194 -198 221 0
-672 -193 -199 222 0
-672 -194 -199 222 0
-672 -193 -200 223 0
-672 -194 -200 223 0
-673 210 0
-673 212 0
-673 -175 0
-673 216 0
-673 -194 -198 221 0
-673 -195 -198 221 0
-673 -194 -199 222 0
-673 -195 -199 222 0
-673 -194 -200 223 0
-673 -195 -200 223 0
-674 210 0
-674 212 0
-674 -176 0
-674 217 0
-674 -195 -198 221 0
-674 -196 -198 221 0
-674 -195 -199 222 0
-674 -196 -199 222 0
-674 -195 -200 223 0
-674 -196 -200 223 0
-675 210 0
-675 212 0
-675 -177 0
-675 218 0
-675 -196 -198 221 0
-675 -197 -198 221 0
-675 -196 -199 222 0
-675 -197 -199 222 0
-675 -196 -200 223 0
-675 -197 -200 223 0
-676 210 0
-676 212 0
-676 -178 0
-676 219 0
-676 -197 -198 221 0
-676 -197 -199 222 0
-676 -197 -200 223 0
-677 210 0
-677 213 0
-677 -173 0
-677 214 0
-677 -202 -206 221 0
-677 -202 -207 222 0
-677 -202 -208 223 0
-678 210 0
-678 213 0
-678 -174 0
-678 215 0
-678 -202 -206 221 0
-678 -203 -206 221 0
-678 -202 -207 222 0
-678 -203 -207 222 0
-678 -202 -208 223 0
-678 -203 -208 223 0
-679 210 0
-679 213 0
-679 -175 0
-679 216 0
-679 -202 -206 221 0
-679 -203 -206 221 0
-679 -204 -206 221 0
-679 -202 -207 222 0
-679 -203 -207 222 0
-679 -204 -207 222 0
-679 -202 -208 223 0
-679 -203 -208 223 0
-679 -204 -208 223 0
-680 210 0
-680 213 0
-680 -176 0
-680 217 0
-680 -203 -206 221 0
-680 -204 -206 221 0
-680 -205 -206 221 0
-680 -203 -207 222 0
-680 -204 -207 222 0
-680 -205 -207 222 0
-680 -203 -208 223 0
-680 -204 -208 223 0
-680 -205 -208 223 0
-681 210 0
-681 213 0
-681 -177 0
-681 218 0
-681 -204 -206 221 0
-681 -205 -206 221 0
-681 -204 -207 222 0
-681 -205 -207 222 0
-681 -204 -208 223 0
-681 -205 -208 223 0
-682 210 0
-682 213 0
-682 -178 0
-682 219 0
-682 -205 -206 221 0
-682 -205 -207 222 0
-682 -205 -208 223 0
-683 210 0
-683 -173 0
-683 214 0
-683 220 0
-684 210 0
-684 -174 0
-684 215 0
-684 220 0
-685 210 0
-685 -175 0
-685 216 0
-685 220 0
-686 210 0
-686 -176 0
-686 217 0
-686 220 0
-687 210 0
-687 -177 0
-687 218 0
-687 220 0
-688 210 0
-688 -178 0
-688 219 0
-688 220 0
-689 211 0
-689 210 0
-689 -183 0
-689 224 0
-689 -173 -179 231 0
-689 -173 -180 232 0
-689 -173 -181 233 0
-690 211 0
-690 210 0
-690 -184 0
-690 225 0
-690 -174 -179 231 0
-690 -174 -180 232 0
-690 -174 -181 233 0
-691 211 0
-691 210 0
-691 -185 0
-691 226 0
-691 -175 -179 231 0
-691 -175 -180 232 0
-691 -175 -181 233 0
-692 211 0
-692 210 0
-692 -186 0
-692 227 0
-692 -176 -179 231 0
-692 -176 -180 232 0
-692 -176 -181 233 0
-693 211 0
-693 210 0
-693 -187 0
-693 228 0
-693 -177 -179 231 0
-693 -177 -180 232 0
-693 -177 -181 233 0
-694 211 0
-694 210 0
-694 -188 0
-694 229 0
-694 -178 -179 231 0
-694 -178 -180 232 0
-694 -178 -181 233 0
-695 211 0
-695 212 0
-695 -183 0
-695 224 0
-695 -193 -198 231 0
-695 -193 -199 232 0
-695 -193 -200 233 0
-696 211 0
-696 212 0
-696 -184 0
-696 225 0
-696 -193 -198 231 0
-696 -194 -198 231 0
-696 -193 -199 232 0
-696 -194 -199 232 0
-696 -193 -200 233 0
-696 -194 -200 233 0
-697 211 0
-697 212 0
-697 -185 0
-697 226 0
-697 -194 -198 231 0
-697 -195 -198 231 0
-697 -194 -199 232 0
-697 -195 -199 232 0
-697 -194 -200 233 0
-697 -195 -200 233 0
-698 211 0
-698 212 0
-698 -186 0
-698 227 0
-698 -195 -198 231 0
-698 -196 -198 231 0
-698 -195 -199 232 0
-698 -196 -199 232 0
-698 -195 -200 233 0
-698 -196 -200 233 0
-699 211 0
-699 212 0
-699 -187 0
-699 228 0
-699 -196 -198 231 0
-699 -197 -198 231 0
-699 -196 -199 232 0
-699 -197 -199 232 0
-699 -196 -200 233 0
-699 -197 -200 233 0
-700 211 0
-700 212 0
-700 -188 0
-700 229 0
-700 -197 -198 231 0
-700 -197 -199 232 0
-700 -197 -200 233 0
-701 211 0
-701 213 0
-701 -183 0
-701 224 0
-701 -202 -206 231 0
-701 -202 -207 232 0
-701 -202 -208 233 0
-702 211 0
-702 213 0
-702 -184 0
-702 225 0
-702 -202 -206 231 0
-702 -203 -206 231 0
-702 -202 -207 232 0
-702 -203 -207 232 0
-702 -202 -208 233 0
-702 -203 -208 233 0
-703 211 0
-703 213 0
-703 -185 0
-703 226 0
-703 -202 -206 231 0
-703 -203 -206 231 0
-703 -204 -206 231 0
-703 -202 -207 232 0
-703 -203 -207 232 0
-703 -204 -207 232 0
-703 -202 -208 233 0
-703 -203 -208 233 0
-703 -204 -208 233 0
-704 211 0
-704 213 0
-704 -186 0
-704 227 0
-704 -203 -206 231 0
-704 -204 -206 231 0
-704 -205 -206 231 0
-704 -203 -207 232 0
-704 -204 -207 232 0
-704 -205 -207 232 0
-704 -203 -208 233 0
-704 -204 -208 233 0
-704 -205 -208 233 0
-705 211 0
-705 213 0
-705 -187 0
-705 228 0
-705 -204 -206 231 0
-705 -205 -206 231 0
-705 -204 -207 232 0
-705 -205 -207 232 0
-705 -204 -208 233 0
-705 -205 -208 233 0
-706 211 0
-706 213 0
-706 -188 0
-706 229 0
-706 -205 -206 231 0
-706 -205 -207 232 0
-706 -205 -208 233 0
-707 211 0
-707 -183 0
-707 224 0
-707 230 0
-708 211 0
-708 -184 0
-708 225 0
-708 230 0
-709 211 0
-709 -185 0
-709 226 0
-709 230 0
-710 211 0
-710 -186 0
-710 227 0
-710 230 0
-711 211 0
-711 -187 0
-711 228 0
-711 230 0
-712 211 0
-712 -188 0
-712 229 0
-712 230 0
-713 212 0
-713 210 0
-713 -193 0
-713 234 0
-713 -173 -179 240 0
-713 -174 -179 240 0
-713 -173 -180 241 0
-713 -174 -180 241 0
-713 -173 -181 242 0
-713 -174 -181 242 0
-714 212 0
-714 210 0
-714 -194 0
-714 235 0
-714 -174 -179 240 0
-714 -175 -179 240 0
-714 -174 -180 241 0
-714 -175 -180 241 0
-714 -174 -181 242 0
-714 -175 -181 242 0
-715 212 0
-715 210 0
-715 -195 0
-715 236 0
-715 -175 -179 240 0
-715 -176 -179 240 0
-715 -175 -180 241 0
-715 -176 -180 241 0
-715 -175 -181 242 0
-715 -176 -181 242 0
-716 212 0
-716 210 0
-716 -196 0
-716 237 0
-716 -176 -179 240 0
-716 -177 -179 240 0
-716 -176 -180 241 0
-716 -177 -180 241 0
-716 -176 -181 242 0
-716 -177 -181 242 0
-717 212 0
-717 210 0
-717 -197 0
-717 238 0
-717 -177 -179 240 0
-717 -178 -179 240 0
-717 -177 -180 241 0
-717 -178 -180 241 0
-717 -177 -181 242 0
-717 -178 -181 242 0
-718 212 0
-718 211 0
-718 -193 0
-718 234 0
-718 -183 -189 240 0
-718 -184 -189 240 0
-718 -183 -190 241 0
-718 -184 -190 241 0
-718 -183 -191 242 0
-718 -184 -191 242 0
-719 212 0
-719 211 0
-719 -194 0
-719 235 0
-719 -184 -189 240 0
-719 -185 -189 240 0
-719 -184 -190 241 0
-719 -185 -190 241 0
-719 -184 -191 242 0
-719 -185 -191 242 0
-720 212 0
-720 211 0
-720 -195 0
-720 236 0
-720 -185 -189 240 0
-720 -186 -189 240 0
-720 -185 -190 241 0
-720 -186 -190 241 0
-720 -185 -191 242 0
-720 -186 -191 242 0
-721 212 0
-721 211 0
-721 -196 0
-721 237 0
-721 -186 -189 240 0
-721 -187 -189 240 0
-721 -186 -190 241 0
-721 -187 -190 241 0
-721 -186 -191 242 0
-721 -187 -191 242 0
-722 212 0
-722 211 0
-722 -197 0
-722 238 0
-722 -187 -189 240 0
-722 -188 -189 240 0
-722 -187 -190 241 0
-722 -188 -190 241 0
-722 -187 -191 242 0
-722 -188 -191 242 0
-723 212 0
-723 213 0
-723 -193 0
-723 234 0
-723 -202 -206 240 0
-723 -203 -206 240 0
-723 -202 -207 241 0
-723 -203 -207 241 0
-723 -202 -208 242 0
-723 -203 -208 242 0
-724 212 0
-724 213 0
-724 -194 0
-724 235 0
-724 -202 -206 240 0
-724 -203 -206 240 0
-724 -204 -206 240 0
-724 -202 -207 241 0
-724 -203 -207 241 0
-724 -204 -207 241 0
-724 -202 -208 242 0
-724 -203 -208 242 0
-724 -204 -208 242 0
-725 212 0
-725 213 0
-725 -195 0
-725 236 0
-725 -202 -206 240 0
-725 -203 -206 240 0
-725 -204 -206 240 0
-725 -205 -206 240 0
-725 -202 -207 241 0
-725 -203 -207 241 0
-725 -204 -207 241 0
-725 -205 -207 241 0
-725 -202 -208 242 0
-725 -203 -208 242 0
-725 -204 -208 242 0
-725 -205 -208 242 0
-726 212 0
-726 213 0
-726 -196 0
-726 237 0
-726 -203 -206 240 0
-726 -204 -206 240 0
-726 -205 -206 240 0
-726 -203 -207 241 0
-726 -204 -207 241 0
-726 -205 -207 241 0
-726 -203 -208 242 0
-726 -204 -208 242 0
-726 -205 -208 242 0
-727 212 0
-727 213 0
-727 -197 0
-727 238 0
-727 -204 -206 240 0
-727 -205 -206 240 0
-727 -204 -207 241 0
-727 -205 -207 241 0
-727 -204 -208 242 0
-727 -205 -208 242 0
-728 212 0
-728 -193 0
-728 234 0
-728 239 0
-729 212 0
-729 -194 0
-729 235 0
-729 239 0
-730 212 0
-730 -195 0
-730 236 0
-730 239 0
-731 212 0
-731 -196 0
-731 237 0
-731 239 0
-732 212 0
-732 -197 0
-732 238 0
-732 239 0
-733 213 0
-733 210 0
-733 -202 0
-733 243 0
-733 -173 -179 248 0
-733 -174 -179 248 0
-733 -175 -179 248 0
-733 -173 -180 249 0
-733 -174 -180 249 0
-733 -175 -180 249 0
-733 -173 -181 250 0
-733 -174 -181 250 0
-733 -175 -181 250 0
-734 213 0
-734 210 0
-734 -203 0
-734 244 0
-734 -174 -179 248 0
-734 -175 -179 248 0
-734 -176 -179 248 0
-734 -174 -180 249 0
-734 -175 -180 249 0
-734 -176 -180 249 0
-734 -174 -181 250 0
-734 -175 -181 250 0
-734 -176 -181 250 0
-735 213 0
-735 210 0
-735 -204 0
-735 245 0
-735 -175 -179 248 0
-735 -176 -179 248 0
-735 -177 -179 248 0
-735 -175 -180 249 0
-735 -176 -180 249 0
-735 -177 -180 249 0
-735 -175 -181 250 0
-735 -176 -181 250 0
-735 -177 -181 250 0
-736 213 0
-736 210 0
-736 -205 0
-736 246 0
-736 -176 -179 248 0
-736 -177 -179 248 0
-736 -178 -179 248 0
-736 -176 -180 249 0
-736 -177 -180 249 0
-736 -178 -180 249 0
-736 -176 -181 250 0
-736 -177 -181 250 0
-736 -178 -181 250 0
-737 213 0
-737 211 0
-737 -202 0
-737 243 0
-737 -183 -189 248 0
-737 -184 -189 248 0
-737 -185 -189 248 0
-737 -183 -190 249 0
-737 -184 -190 249 0
-737 -185 -190 249 0
-737 -183 -191 250 0
-737 -184 -191 250 0
-737 -185 -191 250 0
-738 213 0
-738 211 0
-738 -203 0
-738 244 0
-738 -184 -189 248 0
-738 -185 -189 248 0
-738 -186 -189 248 0
-738 -184 -190 249 0
-738 -185 -190 249 0
-738 -186 -190 249 0
-738 -184 -191 250 0
-738 -185 -191 250 0
-738 -186 -191 250 0
-739 213 0
-739 211 0
-739 -204 0
-739 245 0
-739 -185 -189 248 0
-739 -186 -189 248 0
-739 -187 -189 248 0
-739 -185 -190 249 0
-739 -186 -190 249 0
-739 -187 -190 249 0
-739 -185 -191 250 0
-739 -186 -191 250 0
-739 -187 -191 250 0
-740 213 0
-740 211 0
-740 -205 0
-740 246 0
-740 -186 -189 248 0
-740 -187 -189 248 0
-740 -188 -189 248 0
-740 -186 -190 249 0
-740 -187 -190 249 0
-740 -188 -190 249 0
-740 -186 -191 250 0
-740 -187 -191 250 0
-740 -188 -191 250 0
-741 213 0
-741 212 0
-741 -202 0
-741 243 0
-741 -193 -198 248 0
-741 -194 -198 248 0
-741 -195 -198 248 0
-741 -193 -199 249 0
-741 -194 -199 249 0
-741 -195 -199 249 0
-741 -193 -200 250 0
-741 -194 -200 250 0
-741 -195 -200 250 0
-742 213 0
-742 212 0
-742 -203 0
-742 244 0
-742 -193 -198 248 0
-742 -194 -198 248 0
-742 -195 -198 248 0
-742 -196 -198 248 0
-742 -193 -199 249 0
-742 -194 -199 249 0
-742 -195 -199 249 0
-742 -196 -199 249 0
-742 -193 -200 250 0
-742 -194 -200 250 0
-742 -195 -200 250 0
-742 -196 -200 250 0
-743 213 0
-743 212 0
-743 -204 0
-743 245 0
-743 -194 -198 248 0
-743 -195 -198 248 0
-743 -196 -198 248 0
-743 -197 -198 248 0
-743 -194 -199 249 0
-743 -195 -199 249 0
-743 -196 -199 249 0
-743 -197 -199 249 0
-743 -194 -200 250 0
-743 -195 -200 250 0
-743 -196 -200 250 0
-743 -197 -200 250 0
-744 213 0
-744 212 0
-744 -205 0
-744 246 0
-744 -195 -198 248 0
-744 -196 -198 248 0
-744 -197 -198 248 0
-744 -195 -199 249 0
-744 -196 -199 249 0
-744 -197 -199 249 0
-744 -195 -200 250 0
-744 -196 -200 250 0
-744 -197 -200 250 0
-745 213 0
-745 -202 0
-745 243 0
-745 247 0
-746 213 0
-746 -203 0
-746 244 0
-746 247 0
-747 213 0
-747 -204 0
-747 245 0
-747 247 0
-748 213 0
-748 -205 0
-748 246 0
-748 247 0
665 666 667 668 669 670 671 672 673 674 675 676 677 678 679 680 681 682 683 684 685 686 687 688 689 690 691 692 693 694 695 696 697 698 699 700 701 702 703 704 705 706 707 708 709 710 711 712 713 714 715 716 717 718 719 720 721 722 723 724 725 726 727 728 729 730 731 732 733 734 735 736 737 738 739 740 741 742 743 744 745 746 747 748 0
-665 -666 0
-665 -667 0
-665 -668 0
-665 -669 0
-665 -670 0
-665 -671 0
-665 -672 0
-665 -673 0
-665 -674 0
-665 -675 0
-665 -676 0
-665 -677 0
-665 -678 0
-665 -679 0
-665 -680 0
-665 -681 0
-665 -682 0
-665 -683 0
-665 -684 0
-665 -685 0
-665 -686 0
-665 -687 0
-665 -688 0
-665 -689 0
-665 -690 0
-665 -691 0
-665 -692 0
-665 -693 0
-665 -694 0
-665 -695 0
-665 -696 0
-665 -697 0
-665 -698 0
-665 -699 0
-665 -700 0
-665 -701 0
-665 -702 0
-665 -703 0
-665 -704 0
-665 -705 0
-665 -706 0
-665 -707 0
-665 -708 0
-665 -709 0
-665 -710 0
-665 -711 0
-665 -712 0
-665 -713 0
-665 -714 0
-665 -715 0
-665 -716 0
-665 -717 0
-665 -718 0
-665 -719 0
-665 -720 0
-665 -721 0
-665 -722 0
-665 -723 0
-665 -724 0
-665 -725 0
-665 -726 0
-665 -727 0
-665 -728 0
-665 -729 0
-665 -730 0
-665 -731 0
-665 -732 0
-665 -733 0
-665 -734 0
-665 -735 0
-665 -736 0
-665 -737 0
-665 -738 0
-665 -739 0
-665 -740 0
-665 -741 0
-665 -742 0
-665 -743 0
-665 -744 0
-665 -745 0
-665 -746 0
-665 -747 0
-665 -748 0
-666 -667 0
-666 -668 0
-666 -669 0
-666 -670 0
-666 -671 0
-666 -672 0
-666 -673 0
-666 -674 0
-666 -675 0
-666 -676 0
-666 -677 0
-666 -678 0
-666 -679 0
-666 -680 0
-666 -681 0
-666 -682 0
-666 -683 0
-666 -684 0
-666 -685 0
-666 -686 0
-666 -687 0
-666 -688 0
-666 -689 0
-666 -690 0
-666 -691 0
-666 -692 0
-666 -693 0
-666 -694 0
-666 -695 0
-666 -696 0
-666 -697 0
-666 -698 0
-666 -699 0
-666 -700 0
-666 -701 0
-666 -702 0
-666 -703 0
-666 -704 0
-666 -705 0
-666 -706 0
-666 -707 0
-666 -708 0
-666 -709 0
-666 -710 0
-666 -711 0
-666 -712 0
-666 -713 0
-666 -714 0
-666 -715 0
-666 -716 0
-666 -717 0
-666 -718 0
-666 -719 0
-666 -720 0
-666 -721 0
-666 -722 0
-666 -723 0
-666 -724 0
-666 -725 0
-666 -726 0
-666 -727 0
-666 -728 0
-666 -729 0
-666 -730 0
-666 -731 0
-666 -732 0
-666 -733 0
-666 -734 0
-666 -735 0
-666 -736 0
-666 -737 0
-666 -738 0
-666 -739 0
-666 -740 0
-666 -741 0
-666 -742 0
-666 -743 0
-666 -744 0
-666 -745 0
-666 -746 0
-666 -747 0
-666 -748 0
-667 -668 0
-667 -669 0
-667 -670 0
-667 -671 0
-667 -672 0
-667 -673 0
-667 -674 0
-667 -675 0
-667 -676 0
-667 -677 0
-667 -678 0
-667 -679 0
-667 -680 0
-667 -681 0
-667 -682 0
-667 -683 0
-667 -684 0
-667 -685 0
-667 -686 0
-667 -687 0
-667 -688 0
-667 -689 0
-667 -690 0
-667 -691 0
-667 -692 0
-667 -693 0
-667 -694 0
-667 -695 0
-667 -696 0
-667 -697 0
-667 -698 0
-667 -699 0
-667 -700 0
-667 -701 0
-667 -702 0
-667 -703 0
-667 -704 0
-667 -705 0
-667 -706 0
-667 -707 0
-667 -708 0
-667 -709 0
-667 -710 0
-667 -711 0
-667 -712 0
-667 -713 0
-667 -714 0
-667 -715 0
-667 -716 0
-667 -717 0
-667 -718 0
-667 -719 0
-667 -720 0
-667 -721 0
-667 -722 0
-667 -723 0
-667 -724 0
-667 -725 0
-667 -726 0
-667 -727 0
-667 -728 0
-667 -729 0
-667 -730 0
-667 -731 0
-667 -732 0
-667 -733 0
-667 -734 0
-667 -735 0
-667 -736 0
-667 -737 0
-667 -738 0
-667 -739 0
-667 -740 0
-667 -741 0
-667 -742 0
-667 -743 0
-667 -744 0
-667 -745 0
-667 -746 0
-667 -747 0
-667 -748 0
-668 -669 0
-668 -670 0
-668 -671 0
-668 -672 0
-668 -673 0
-668 -674 0
-668 -675 0
-668 -676 0
-668 -677 0
-668 -678 0
-668 -679 0
-668 -680 0
-668 -681 0
-668 -682 0
-668 -683 0
-668 -684 0
-668 -685 0
-668 -686 0
-668 -687 0
-668 -688 0
-668 -689 0
-668 -690 0
-668 -691 0
-668 -692 0
-668 -693 0
-668 -694 0
-668 -695 0
-668 -696 0
-668 -697 0
-668 -698 0
-668 -699 0
-668 -700 0
-668 -701 0
-668 -702 0
-668 -703 0
-668 -704 0
-668 -705 0
-668 -706 0
-668 -707 0
-668 -708 0
-668 -709 0
-668 -710 0
-668 -711 0
-668 -712 0
-668 -713 0
-668 -714 0
-668 -715 0
-668 -716 0
-668 -717 0
-668 -718 0
-668 -719 0
-668 -720 0
-668 -721 0
-668 -722 0
-668 -723 0
-668 -724 0
-668 -725 0
-668 -726 0
-668 -727 0
-668 -728 0
-668 -729 0
-668 -730 0
-668 -731 0
-668 -732 0
-668 -733 0
-668 -734 0
-668 -735 0
-668 -736 0
-668 -737 0
-668 -738 0
-668 -739 0
-668 -740 0
-668 -741 0
-668 -742 0
-668 -743 0
-668 -744 0
-668 -745 0
-668 -746 0
-668 -747 0
-668 -748 0
-669 -670 0
-669 -671 0
-669 -672 0
-669 -673 0
-669 -674 0
-669 -675 0
-669 -676 0
-669 -677 0
-669 -678 0
-669 -679 0
-669 -680 0
-669 -681 0
-669 -682 0
-669 -683 0
-669 -684 0
-669 -685 0
-669 -686 0
-669 -687 0
-669 -688 0
-669 -689 0
-669 -690 0
-669 -691 0
-669 -692 0
-669 -693 0
-669 -694 0
-669 -695 0
-669 -696 0
-669 -697 0
-669 -698 0
-669 -699 0
-669 -700 0
-669 -701 0
-669 -702 0
-669 -703 0
-669 -704 0
-669 -705 0
-669 -706 0
-669 -707 0
-669 -708 0
-669 -709 0
-669 -710 0
-669 -711 0
-669 -712 0
-669 -713 0
-669 -714 0
-669 -715 0
-669 -716 0
-669 -717 0
-669 -718 0
-669 -719 0
-669 -720 0
-669 -721 0
-669 -722 0
-669 -723 0
-669 -724 0
-669 -725 0
-669 -726 0
-669 -727 0
-669 -728 0
-669 -729 0
-669 -730 0
-669 -731 0
-669 -732 0
-669 -733 0
-669 -734 0
-669 -735 0
-669 -736 0
-669 -737 0
-669 -738 0
-669 -739 0
-669 -740 0
-669 -741 0
-669 -742 0
-669 -743 0
-669 -744 0
-669 -745 0
-669 -746 0
-669 -747 0
-669 -748 0
-670 -671 0
-670 -672 0
-670 -673 0
-670 -674 0
-670 -675 0
-670 -676 0
-670 -677 0
-670 -678 0
-670 -679 0
-670 -680 0
-670 -681 0
-670 -682 0
-670 -683 0
-670 -684 0
-670 -685 0
-670 -686 0
-670 -687 0
-670 -688 0
-670 -689 0
-670 -690 0
-670 -691 0
-670 -692 0
-670 -693 0
-670 -694 0
-670 -695 0
-670 -696 0
-670 -697 0
-670 -698 0
-670 -699 0
-670 -700 0
-670 -701 0
-670 -702 0
-670 -703 0
-670 -704 0
-670 -705 0
-670 -706 0
-670 -707 0
-670 -708 0
-670 -709 0
-670 -710 0
-670 -711 0
-670 -712 0
-670 -713 0
-670 -714 0
-670 -715 0
-670 -716 0
-670 -717 0
-670 -718 0
-670 -719 0
-670 -720 0
-670 -721 0
-670 -722 0
-670 -723 0
-670 -724 0
-670 -725 0
-670 -726 0
-670 -727 0
-670 -728 0
-670 -729 0
-670 -730 0
-670 -731 0
-670 -732 0
-670 -733 0
-670 -734 0
-670 -735 0
-670 -736 0
-670 -737 0
-670 -738 0
-670 -739 0
-670 -740 0
-670 -741 0
-670 -742 0
-670 -743 0
-670 -744 0
-670 -745 0
-670 -746 0
-670 -747 0
-670 -748 0
-671 -672 0
-671 -673 0
-671 -674 0
-671 -675 0
-671 -676 0
-671 -677 0
-671 -678 0
-671 -679 0
-671 -680 0
-671 -681 0
-671 -682 0
-671 -683 0
-671 -684 0
-671 -685 0
-671 -686 0
-671 -687 0
-671 -688 0
-671 -689 0
-671 -690 0
-671 -691 0
-671 -692 0
-671 -693 0
-671 -694 0
-671 -695 0
-671 -696 0
-671 -697 0
-671 -698 0
-671 -699 0
-671 -700 0
-671 -701 0
-671 -702 0
-671 -703 0
-671 -704 0
-671 -705 0
-671 -706 0
-671 -707 0
-671 -708 0
-671 -709 0
-671 -710 0
-671 -711 0
-671 -712 0
-671 -713 0
-671 -714 0
-671 -715 0
-671 -716 0
-671 -717 0
-671 -718 0
-671 -719 0
-671 -720 0
-671 -721 0
-671 -722 0
-671 -723 0
-671 -724 0
-671 -725 0
-671 -726 0
-671 -727 0
-671 -728 0
-671 -729 0
-671 -730 0
-671 -731 0
-671 -732 0
-671 -733 0
-671 -734 0
-671 -735 0
-671 -736 0
-671 -737 0
-671 -738 0
-671 -739 0
-671 -740 0
-671 -741 0
-671 -742 0
-671 -743 0
-671 -744 0
-671 -745 0
-671 -746 0
-671 -747 0
-671 -748 0
-672 -673 0
-672 -674 0
-672 -675 0
-672 -676 0
-672 -677 0
-672 -678 0
-672 -679 0
-672 -680 0
-672 -681 0
-672 -682 0
-672 -683 0
-672 -684 0
-672 -685 0
-672 -686 0
-672 -687 0
-672 -688 0
-672 -689 0
-672 -690 0
-672 -691 0
-672 -692 0
-672 -693 0
-672 -694 0
-672 -695 0
-672 -696 0
-672 -697 0
-672 -698 0
-672 -699 0
-672 -700 0
-672 -701 0
-672 -702 0
-672 -703 0
-672 -704 0
-672 -705 0
-672 -706 0
-672 -707 0
-672 -708 0
-672 -709 0
-672 -710 0
-672 -711 0
-672 -712 0
-672 -713 0
-672 -714 0
-672 -715 0
-672 -716 0
-672 -717 0
-672 -718 0
-672 -719 0
-672 -720 0
-672 -721 0
-672 -722 0
-672 -723 0
-672 -724 0
-672 -725 0
-672 -726 0
-672 -727 0
-672 -728 0
-672 -729 0
-672 -730 0
-672 -731 0
-672 -732 0
-672 -733 0
-672 -734 0
-672 -735 0
-672 -736 0
-672 -737 0
-672 -738 0
-672 -739 0
-672 -740 0
-672 -741 0
-672 -742 0
-672 -743 0
-672 -744 0
-672 -745 0
-672 -746 0
-672 -747 0
-672 -748 0
-673 -674 0
-673 -675 0
-673 -676 0
-673 -677 0
-673 -678 0
-673 -679 0
-673 -680 0
-673 -681 0
-673 -682 0
-673 -683 0
-673 -684 0
-673 -685 0
-673 -686 0
-673 -687 0
-673 -688 0
-673 -689 0
-673 -690 0
-673 -691 0
-673 -692 0
-673 -693 0
-673 -694 0
-673 -695 0
-673 -696 0
-673 -697 0
-673 -698 0
-673 -699 0
-673 -700 0
-673 -701 0
-673 -702 0
-673 -703 0
-673 -704 0
-673 -705 0
-673 -706 0
-673 -707 0
-673 -708 0
-673 -709 0
-673 -710 0
-673 -711 0
-673 -712 0
-673 -713 0
-673 -714 0
-673 -715 0
-673 -716 0
-673 -717 0
-673 -718 0
-673 -719 0
-673 -720 0
-673 -721 0
-673 -722 0
-673 -723 0
-673 -724 0
-673 -725 0
-673 -726 0
-673 -727 0
-673 -728 0
-673 -729 0
-673 -730 0
-673 -731 0
-673 -732 0
-673 -733 0
-673 -734 0
-673 -735 0
-673 -736 0
-673 -737 0
-673 -738 0
-673 -739 0
-673 -740 0
-673 -741 0
-673 -742 0
-673 -743 0
-673 -744 0
-673 -745 0
-673 -746 0
-673 -747 0
-673 -748 0
-674 -675 0
-674 -676 0
-674 -677 0
-674 -678 0
-674 -679 0
-674 -680 0
-674 -681 0
-674 -682 0
-674 -683 0
-674 -684 0
-674 -685 0
-674 -686 0
-674 -687 0
-674 -688 0
-674 -689 0
-674 -690 0
-674 -691 0
-674 -692 0
-674 -693 0
-674 -694 0
-674 -695 0
-674 -696 0
-674 -697 0
-674 -698 0
-674 -699 0
-674 -700 0
-674 -701 0
-674 -702 0
-674 -703 0
-674 -704 0
-674 -705 0
-674 -706 0
-674 -707 0
-674 -708 0
-674 -709 0
-674 -710 0
-674 -711 0
-674 -712 0
-674 -713 0
-674 -714 0
-674 -715 0
-674 -716 0
-674 -717 0
-674 -718 0
-674 -719 0
-674 -720 0
-674 -721 0
-674 -722 0
-674 -723 0
-674 -724 0
-674 -725 0
-674 -726 0
-674 -727 0
-674 -728 0
-674 -729 0
-674 -730 0
-674 -731 0
-674 -732 0
-674 -733 0
-674 -734 0
-674 -735 0
-674 -736 0
-674 -737 0
-674 -738 0
-674 -739 0
-674 -740 0
-674 -741 0
-674 -742 0
-674 -743 0
-674 -744 0
-674 -745 0
-674 -746 0
-674 -747 0
-674 -748 0
-675 -676 0
-675 -677 0
-675 -678 0
-675 -679 0
-675 -680 0
-675 -681 0
-675 -682 0
-675 -683 0
-675 -684 0
-675 -685 0
-675 -686 0
-675 -687 0
-675 -688 0
-675 -689 0
-675 -690 0
-675 -691 0
-675 -692 0
-675 -693 0
-675 -694 0
-675 -695 0
-675 -696 0
-675 -697 0
-675 -698 0
-675 -699 0
-675 -700 0
-675 -701 0
-675 -702 0
-675 -703 0
-675 -704 0
-675 -705 0
-675 -706 0
-675 -707 0
-675 -708 0
-675 -709 0
-675 -710 0
-675 -711 0
-675 -712 0
-675 -713 0
-675 -714 0
-675 -715 0
-675 -716 0
-675 -717 0
-675 -718 0
-675 -719 0
-675 -720 0
-675 -721 0
-675 -722 0
-675 -723 0
-675 -724 0
-675 -725 0
-675 -726 0
-675 -727 0
-675 -728 0
-675 -729 0
-675 -730 0
-675 -731 0
-675 -732 0
-675 -733 0
-675 -734 0
-675 -735 0
-675 -736 0
-675 -737 0
-675 -738 0
-675 -739 0
-675 -740 0
-675 -741 0
-675 -742 0
-675 -743 0
-675 -744 0
-675 -745 0
-675 -746 0
-675 -747 0
-675 -748 0
-676 -677 0
-676 -678 0
-676 -679 0
-676 -680 0
-676 -681 0
-676 -682 0
-676 -683 0
-676 -684 0
-676 -685 0
-676 -686 0
-676 -687 0
-676 -688 0
-676 -689 0
-676 -690 0
-676 -691 0
-676 -692 0
-676 -693 0
-676 -694 0
-676 -695 0
-676 -696 0
-676 -697 0
-676 -698 0
-676 -699 0
-676 -700 0
-676 -701 0
-676 -702 0
-676 -703 0
-676 -704 0
-676 -705 0
-676 -706 0
-676 -707 0
-676 -708 0
-676 -709 0
-676 -710 0
-676 -711 0
-676 -712 0
-676 -713 0
-676 -714 0
-676 -715 0
-676 -716 0
-676 -717 0
-676 -718 0
-676 -719 0
-676 -720 0
-676 -721 0
-676 -722 0
-676 -723 0
-676 -724 0
-676 -725 0
-676 -726 0
-676 -727 0
-676 -728 0
-676 -729 0
-676 -730 0
-676 -731 0
-676 -732 0
-676 -733 0
-676 -734 0
-676 -735 0
-676 -736 0
-676 -737 0
-676 -738 0
-676 -739 0
-676 -740 0
-676 -741 0
-676 -742 0
-676 -743 0
-676 -744 0
-676 -745 0
-676 -746 0
-676 -747 0
-676 -748 0
-677 -678 0
-677 -679 0
-677 -680 0
-677 -681 0
-677 -682 0
-677 -683 0
-677 -684 0
-677 -685 0
-677 -686 0
-677 -687 0
-677 -688 0
-677 -689 0
-677 -690 0
-677 -691 0
-677 -692 0
-677 -693 0
-677 -694 0
-677 -695 0
-677 -696 0
-677 -697 0
-677 -698 0
-677 -699 0
-677 -700 0
-677 -701 0
-677 -702 0
-677 -703 0
-677 -704 0
-677 -705 0
-677 -706 0
-677 -707 0
-677 -708 0
-677 -709 0
-677 -710 0
-677 -711 0
-677 -712 0
-677 -713 0
-677 -714 0
-677 -715 0
-677 -716 0
-677 -717 0
-677 -718 0
-677 -719 0
-677 -720 0
-677 -721 0
-677 -722 0
-677 -723 0
-677 -724 0
-677 -725 0
-677 -726 0
-677 -727 0
-677 -728 0
-677 -729 0
-677 -730 0
-677 -731 0
-677 -732 0
-677 -733 0
-677 -734 0
-677 -735 0
-677 -736 0
-677 -737 0
-677 -738 0
-677 -739 0
-677 -740 0
-677 -741 0
-677 -742 0
-677 -743 0
-677 -744 0
-677 -745 0
-677 -746 0
-677 -747 0
-677 -748 0
-678 -679 0
-678 -680 0
-678 -681 0
-678 -682 0
-678 -683 0
-678 -684 0
-678 -685 0
-678 -686 0
-678 -687 0
-678 -688 0
-678 -689 0
-678 -690 0
-678 -691 0
-678 -692 0
-678 -693 0
-678 -694 0
-678 -695 0
-678 -696 0
-678 -697 0
-678 -698 0
-678 -699 0
-678 -700 0
-678 -701 0
-678 -702 0
-678 -703 0
-678 -704 0
-678 -705 0
-678 -706 0
-678 -707 0
-678 -708 0
-678 -709 0
-678 -710 0
-678 -711 0
-678 -712 0
-678 -713 0
-678 -714 0
-678 -715 0
-678 -716 0
-678 -717 0
-678 -718 0
-678 -719 0
-678 -720 0
-678 -721 0
-678 -722 0
-678 -723 0
-678 -724 0
-678 -725 0
-678 -726 0
-678 -727 0
-678 -728 0
-678 -729 0
-678 -730 0
-678 -731 0
-678 -732 0
-678 -733 0
-678 -734 0
-678 -735 0
-678 -736 0
-678 -737 0
-678 -738 0
-678 -739 0
-678 -740 0
-678 -741 0
-678 -742 0
-678 -743 0
-678 -744 0
-678 -745 0
-678 -746 0
-678 -747 0
-678 -748 0
-679 -680 0
-679 -681 0
-679 -682 0
-679 -683 0
-679 -684 0
-679 -685 0
-679 -686 0
-679 -687 0
-679 -688 0
-679 -689 0
-679 -690 0
-679 -691 0
-679 -692 0
-679 -693 0
-679 -694 0
-679 -695 0
-679 -696 0
-679 -697 0
-679 -698 0
-679 -699 0
-679 -700 0
-679 -701 0
-679 -702 0
-679 -703 0
-679 -704 0
-679 -705 0
-679 -706 0
-679 -707 0
-679 -708 0
-679 -709 0
-679 -710 0
-679 -711 0
-679 -712 0
-679 -713 0
-679 -714 0
-679 -715 0
-679 -716 0
-679 -717 0
-679 -718 0
-679 -719 0
-679 -720 0
-679 -721 0
-679 -722 0
-679 -723 0
-679 -724 0
-679 -725 0
-679 -726 0
-679 -727 0
-679 -728 0
-679 -729 0
-679 -730 0
-679 -731 0
-679 -732 0
-679 -733 0
-679 -734 0
-679 -735 0
-679 -736 0
-679 -737 0
-679 -738 0
-679 -739 0
-679 -740 0
-679 -741 0
-679 -742 0
-679 -743 0
-679 -744 0
-679 -745 0
-679 -746 0
-679 -747 0
-679 -748 0
-680 -681 0
-680 -682 0
-680 -683 0
-680 -684 0
-680 -685 0
-680 -686 0
-680 -687 0
-680 -688 0
-680 -689 0
-680 -690 0
-680 -691 0
-680 -692 0
-680 -693 0
-680 -694 0
-680 -695 0
-680 -696 0
-680 -697 0
-680 -698 0
-680 -699 0
-680 -700 0
-680 -701 0
-680 -702 0
-680 -703 0
-680 -704 0
-680 -705 0
-680 -706 0
-680 -707 0
-680 -708 0
-680 -709 0
-680 -710 0
-680 -711 0
-680 -712 0
-680 -713 0
-680 -714 0
-680 -715 0
-680 -716 0
-680 -717 0
-680 -718 0
-680 -719 0
-680 -720 0
-680 -721 0
-680 -722 0
-680 -723 0
-680 -724 0
-680 -725 0
-680 -726 0
-680 -727 0
-680 -728 0
-680 -729 0
-680 -730 0
-680 -731 0
-680 -732 0
-680 -733 0
-680 -734 0
-680 -735 0
-680 -736 0
-680 -737 0
-680 -738 0
-680 -739 0
-680 -740 0
-680 -741 0
-680 -742 0
-680 -743 0
-680 -744 0
-680 -745 0
-680 -746 0
-680 -747 0
-680 -748 0
-681 -682 0
-681 -683 0
-681 -684 0
-681 -685 0
-681 -686 0
-681 -687 0
-681 -688 0
-681 -689 0
-681 -690 0
-681 -691 0
-681 -692 0
-681 -693 0
-681 -694 0
-681 -695 0
-681 -696 0
-681 -697 0
-681 -698 0
-681 -699 0
-681 -700 0
-681 -701 0
-681 -702 0
-681 -703 0
-681 -704 0
-681 -705 0
-681 -706 0
-681 -707 0
-681 -708 0
-681 -709 0
-681 -710 0
-681 -711 0
-681 -712 0
-681 -713 0
-681 -714 0
-681 -715 0
-681 -716 0
-681 -717 0
-681 -718 0
-681 -719 0
-681 -720 0
-681 -721 0
-681 -722 0
-681 -723 0
-681 -724 0
-681 -725 0
-681 -726 0
-681 -727 0
-681 -728 0
-681 -729 0
-681 -730 0
-681 -731 0
-681 -732 0
-681 -733 0
-681 -734 0
-681 -735 0
-681 -736 0
-681 -737 0
-681 -738 0
-681 -739 0
-681 -740 0
-681 -741 0
-681 -742 0
-681 -743 0
-681 -744 0
-681 -745 0
-681 -746 0
-681 -747 0
-681 -748 0
-682 -683 0
-682 -684 0
-682 -685 0
-682 -686 0
-682 -687 0
-682 -688 0
-682 -689 0
-682 -690 0
-682 -691 0
-682 -692 0
-682 -693 0
-682 -694 0
-682 -695 0
-682 -696 0
-682 -697 0
-682 -698 0
-682 -699 0
-682 -700 0
-682 -701 0
-682 -702 0
-682 -703 0
-682 -704 0
-682 -705 0
-682 -706 0
-682 -707 0
-682 -708 0
-682 -709 0
-682 -710 0
-682 -711 0
-682 -712 0
-682 -713 0
-682 -714 0
-682 -715 0
-682 -716 0
-682 -717 0
-682 -718 0
-682 -719 0
-682 -720 0
-682 -721 0
-682 -722 0
-682 -723 0
-682 -724 0
-682 -725 0
-682 -726 0
-682 -727 0
-682 -728 0
-682 -729 0
-682 -730 0
-682 -731 0
-682 -732 0
-682 -733 0
-682 -734 0
-682 -735 0
-682 -736 0
-682 -737 0
-682 -738 0
-682 -739 0
-682 -740 0
-682 -741 0
-682 -742 0
-682 -743 0
-682 -744 0
-682 -745 0
-682 -746 0
-682 -747 0
-682 -748 0
-683 -684 0
-683 -685 0
-683 -686 0
-683 -687 0
-683 -688 0
-683 -689 0
-683 -690 0
-683 -691 0
-683 -692 0
-683 -693 0
-683 -694 0
-683 -695 0
-683 -696 0
-683 -697 0
-683 -698 0
-683 -699 0
-683 -700 0
-683 -701 0
-683 -702 0
-683 -703 0
-683 -704 0
-683 -705 0
-683 -706 0
-683 -707 0
-683 -708 0
-683 -709 0
-683 -710 0
-683 -711 0
-683 -712 0
-683 -713 0
-683 -714 0
-683 -715 0
-683 -716 0
-683 -717 0
-683 -718 0
-683 -719 0
-683 -720 0
-683 -721 0
-683 -722 0
-683 -723 0
-683 -724 0
-683 -725 0
-683 -726 0
-683 -727 0
-683 -728 0
-683 -729 0
-683 -730 0
-683 -731 0
-683 -732 0
-683 -733 0
-683 -734 0
-683 -735 0
-683 -736 0
-683 -737 0
-683 -738 0
-683 -739 0
-683 -740 0
-683 -741 0
-683 -742 0
-683 -743 0
-683 -744 0
-683 -745 0
-683 -746 0
-683 -747 0
-683 -748 0
-684 -685 0
-684 -686 0
-684 -687 0
-684 -688 0
-684 -689 0
-684 -690 0
-684 -691 0
-684 -692 0
-684 -693 0
-684 -694 0
-684 -695 0
-684 -696 0
-684 -697 0
-684 -698 0
-684 -699 0
-684 -700 0
-684 -701 0
-684 -702 0
-684 -703 0
-684 -704 0
-684 -705 0
-684 -706 0
-684 -707 0
-684 -708 0
-684 -709 0
-684 -710 0
-684 -711 0
-684 -712 0
-684 -713 0
-684 -714 0
-684 -715 0
-684 -716 0
-684 -717 0
-684 -718 0
-684 -719 0
-684 -720 0
-684 -721 0
-684 -722 0
-684 -723 0
-684 -724 0
-684 -725 0
-684 -726 0
-684 -727 0
-684 -728 0
-684 -729 0
-684 -730 0
-684 -731 0
-684 -732 0
-684 -733 0
-684 -734 0
-684 -735 0
-684 -736 0
-684 -737 0
-684 -738 0
-684 -739 0
-684 -740 0
-684 -741 0
-684 -742 0
-684 -743 0
-684 -744 0
-684 -745 0
-684 -746 0
-684 -747 0
-684 -748 0
-685 -686 0
-685 -687 0
-685 -688 0
-685 -689 0
-685 -690 0
-685 -691 0
-685 -692 0
-685 -693 0
-685 -694 0
-685 -695 0
-685 -696 0
-685 -697 0
-685 -698 0
-685 -699 0
-685 -700 0
-685 -701 0
-685 -702 0
-685 -703 0
-685 -704 0
-685 -705 0
-685 -706 0
-685 -707 0
-685 -708 0
-685 -709 0
-685 -710 0
-685 -711 0
-685 -712 0
-685 -713 0
-685 -714 0
-685 -715 0
-685 -716 0
-685 -717 0
-685 -718 0
-685 -719 0
-685 -720 0
-685 -721 0
-685 -722 0
-685 -723 0
-685 -724 0
-685 -725 0
-685 -726 0
-685 -727 0
-685 -728 0
-685 -729 0
-685 -730 0
-685 -731 0
-685 -732 0
-685 -733 0
-685 -734 0
-685 -735 0
-685 -736 0
-685 -737 0
-685 -738 0
-685 -739 0
-685 -740 0
-685 -741 0
-685 -742 0
-685 -743 0
-685 -744 0
-685 -745 0
-685 -746 0
-685 -747 0
-685 -748 0
-686 -687 0
-686 -688 0
-686 -689 0
-686 -690 0
-686 -691 0
-686 -692 0
-686 -693 0
-686 -694 0
-686 -695 0
-686 -696 0
-686 -697 0
-686 -698 0
-686 -699 0
-686 -700 0
-686 -701 0
-686 -702 0
-686 -703 0
-686 -704 0
-686 -705 0
-686 -706 0
-686 -707 0
-686 -708 0
-686 -709 0
-686 -710 0
-686 -711 0
-686 -712 0
-686 -713 0
-686 -714 0
-686 -715 0
-686 -716 0
-686 -717 0
-686 -718 0
-686 -719 0
-686 -720 0
-686 -721 0
-686 -722 0
-686 -723 0
-686 -724 0
-686 -725 0
-686 -726 0
-686 -727 0
-686 -728 0
-686 -729 0
-686 -730 0
-686 -731 0
-686 -732 0
-686 -733 0
-686 -734 0
-686 -735 0
-686 -736 0
-686 -737 0
-686 -738 0
-686 -739 0
-686 -740 0
-686 -741 0
-686 -742 0
-686 -743 0
-686 -744 0
-686 -745 0
-686 -746 0
-686 -747 0
-686 -748 0
-687 -688 0
-687 -689 0
-687 -690 0
-687 -691 0
-687 -692 0
-687 -693 0
-687 -694 0
-687 -695 0
-687 -696 0
-687 -697 0
-687 -698 0
-687 -699 0
-687 -700 0
-687 -701 0
-687 -702 0
-687 -703 0
-687 -704 0
-687 -705 0
-687 -706 0
-687 -707 0
-687 -708 0
-687 -709 0
-687 -710 0
-687 -711 0
-687 -712 0
-687 -713 0
-687 -714 0
-687 -715 0
-687 -716 0
-687 -717 0
-687 -718 0
-687 -719 0
-687 -720 0
-687 -721 0
-687 -722 0
-687 -723 0
-687 -724 0
-687 -725 0
-687 -726 0
-687 -727 0
-687 -728 0
-687 -729 0
-687 -730 0
-687 -731 0
-687 -732 0
-687 -733 0
-687 -734 0
-687 -735 0
-687 -736 0
-687 -737 0
-687 -738 0
-687 -739 0
-687 -740 0
-687 -741 0
-687 -742 0
-687 -743 0
-687 -744 0
-687 -745 0
-687 -746 0
-687 -747 0
-687 -748 0
-688 -689 0
-688 -690 0
-688 -691 0
-688 -692 0
-688 -693 0
-688 -694 0
-688 -695 0
-688 -696 0
-688 -697 0
-688 -698 0
-688 -699 0
-688 -700 0
-688 -701 0
-688 -702 0
-688 -703 0
-688 -704 0
-688 -705 0
-688 -706 0
-688 -707 0
-688 -708 0
-688 -709 0
-688 -710 0
-688 -711 0
-688 -712 0
-688 -713 0
-688 -714 0
-688 -715 0
-688 -716 0
-688 -717 0
-688 -718 0
-688 -719 0
-688 -720 0
-688 -721 0
-688 -722 0
-688 -723 0
-688 -724 0
-688 -725 0
-688 -726 0
-688 -727 0
-688 -728 0
-688 -729 0
-688 -730 0
-688 -731 0
-688 -732 0
-688 -733 0
-688 -734 0
-688 -735 0
-688 -736 0
-688 -737 0
-688 -738 0
-688 -739 0
-688 -740 0
-688 -741 0
-688 -742 0
-688 -743 0
-688 -744 0
-688 -745 0
-688 -746 0
-688 -747 0
-688 -748 0
-689 -690 0
-689 -691 0
-689 -692 0
-689 -693 0
-689 -694 0
-689 -695 0
-689 -696 0
-689 -697 0
-689 -698 0
-689 -699 0
-689 -700 0
-689 -701 0
-689 -702 0
-689 -703 0
-689 -704 0
-689 -705 0
-689 -706 0
-689 -707 0
-689 -708 0
-689 -709 0
-689 -710 0
-689 -711 0
-689 -712 0
-689 -713 0
-689 -714 0
-689 -715 0
-689 -716 0
-689 -717 0
-689 -718 0
-689 -719 0
-689 -720 0
-689 -721 0
-689 -722 0
-689 -723 0
-689 -724 0
-689 -725 0
-689 -726 0
-689 -727 0
-689 -728 0
-689 -729 0
-689 -730 0
-689 -731 0
-689 -732 0
-689 -733 0
-689 -734 0
-689 -735 0
-689 -736 0
-689 -737 0
-689 -738 0
-689 -739 0
-689 -740 0
-689 -741 0
-689 -742 0
-689 -743 0
-689 -744 0
-689 -745 0
-689 -746 0
-689 -747 0
-689 -748 0
-690 -691 0
-690 -692 0
-690 -693 0
-690 -694 0
-690 -695 0
-690 -696 0
-690 -697 0
-690 -698 0
-690 -699 0
-690 -700 0
-690 -701 0
-690 -702 0
-690 -703 0
-690 -704 0
-690 -705 0
-690 -706 0
-690 -707 0
-690 -708 0
-690 -709 0
-690 -710 0
-690 -711 0
-690 -712 0
-690 -713 0
-690 -714 0
-690 -715 0
-690 -716 0
-690 -717 0
-690 -718 0
-690 -719 0
-690 -720 0
-690 -721 0
-690 -722 0
-690 -723 0
-690 -724 0
-690 -725 0
-690 -726 0
-690 -727 0
-690 -728 0
-690 -729 0
-690 -730 0
-690 -731 0
-690 -732 0
-690 -733 0
-690 -734 0
-690 -735 0
-690 -736 0
-690 -737 0
-690 -738 0
-690 -739 0
-690 -740 0
-690 -741 0
-690 -742 0
-690 -743 0
-690 -744 0
-690 -745 0
-690 -746 0
-690 -747 0
-690 -748 0
-691 -692 0
-691 -693 0
-691 -694 0
-691 -695 0
-691 -696 0
-691 -697 0
-691 -698 0
-691 -699 0
-691 -700 0
-691 -701 0
-691 -702 0
-691 -703 0
-691 -704 0
-691 -705 0
-691 -706 0
-691 -707 0
-691 -708 0
-691 -709 0
-691 -710 0
-691 -711 0
-691 -712 0
-691 -713 0
-691 -714 0
-691 -715 0
-691 -716 0
-691 -717 0
-691 -718 0
-691 -719 0
-691 -720 0
-691 -721 0
-691 -722 0
-691 -723 0
-691 -724 0
-691 -725 0
-691 -726 0
-691 -727 0
-691 -728 0
-691 -729 0
-691 -730 0
-691 -731 0
-691 -732 0
-691 -733 0
-691 -734 0
-691 -735 0
-691 -736 0
-691 -737 0
-691 -738 0
-691 -739 0
-691 -740 0
-691 -741 0
-691 -742 0
-691 -743 0
-691 -744 0
-691 -745 0
-691 -746 0
-691 -747 0
-691 -748 0
-692 -693 0
-692 -694 0
-692 -695 0
-692 -696 0
-692 -697 0
-692 -698 0
-692 -699 0
-692 -700 0
-692 -701 0
-692 -702 0
-692 -703 0
-692 -704 0
-692 -705 0
-692 -706 0
-692 -707 0
-692 -708 0
-692 -709 0
-692 -710 0
-692 -711 0
-692 -712 0
-692 -713 0
-692 -714 0
-692 -715 0
-692 -716 0
-692 -717 0
-692 -718 0
-692 -719 0
-692 -720 0
-692 -721 0
-692 -722 0
-692 -723 0
-692 -724 0
-692 -725 0
-692 -726 0
-692 -727 0
-692 -728 0
-692 -729 0
-692 -730 0
-692 -731 0
-692 -732 0
-692 -733 0
-692 -734 0
-692 -735 0
-692 -736 0
-692 -737 0
-692 -738 0
-692 -739 0
-692 -740 0
-692 -741 0
-692 -742 0
-692 -743 0
-692 -744 0
-692 -745 0
-692 -746 0
-692 -747 0
-692 -748 0
-693 -694 0
-693 -695 0
-693 -696 0
-693 -697 0
-693 -698 0
-693 -699 0
-693 -700 0
-693 -701 0
-693 -702 0
-693 -703 0
-693 -704 0
-693 -705 0
-693 -706 0
-693 -707 0
-693 -708 0
-693 -709 0
-693 -710 0
-693 -711 0
-693 -712 0
-693 -713 0
-693 -714 0
-693 -715 0
-693 -716 0
-693 -717 0
-693 -718 0
-693 -719 0
-693 -720 0
-693 -721 0
-693 -722 0
-693 -723 0
-693 -724 0
-693 -725 0
-693 -726 0
-693 -727 0
-693 -728 0
-693 -729 0
-693 -730 0
-693 -731 0
-693 -732 0
-693 -733 0
-693 -734 0
-693 -735 0
-693 -736 0
-693 -737 0
-693 -738 0
-693 -739 0
-693 -740 0
-693 -741 0
-693 -742 0
-693 -743 0
-693 -744 0
-693 -745 0
-693 -746 0
-693 -747 0
-693 -748 0
-694 -695 0
-694 -696 0
-694 -697 0
-694 -698 0
-694 -699 0
-694 -700 0
-694 -701 0
-694 -702 0
-694 -703 0
-694 -704 0
-694 -705 0
-694 -706 0
-694 -707 0
-694 -708 0
-694 -709 0
-694 -710 0
-694 -711 0
-694 -712 0
-694 -713 0
-694 -714 0
-694 -715 0
-694 -716 0
-694 -717 0
-694 -718 0
-694 -719 0
-694 -720 0
-694 -721 0
-694 -722 0
-694 -723 0
-694 -724 0
-694 -725 0
-694 -726 0
-694 -727 0
-694 -728 0
-694 -729 0
-694 -730 0
-694 -731 0
-694 -732 0
-694 -733 0
-694 -734 0
-694 -735 0
-694 -736 0
-694 -737 0
-694 -738 0
-694 -739 0
-694 -740 0
-694 -741 0
-694 -742 0
-694 -743 0
-694 -744 0
-694 -745 0
-694 -746 0
-694 -747 0
-694 -748 0
-695 -696 0
-695 -697 0
-695 -698 0
-695 -699 0
-695 -700 0
-695 -701 0
-695 -702 0
-695 -703 0
-695 -704 0
-695 -705 0
-695 -706 0
-695 -707 0
-695 -708 0
-695 -709 0
-695 -710 0
-695 -711 0
-695 -712 0
-695 -713 0
-695 -714 0
-695 -715 0
-695 -716 0
-695 -717 0
-695 -718 0
-695 -719 0
-695 -720 0
-695 -721 0
-695 -722 0
-695 -723 0
-695 -724 0
-695 -725 0
-695 -726 0
-695 -727 0
-695 -728 0
-695 -729 0
-695 -730 0
-695 -731 0
-695 -732 0
-695 -733 0
-695 -734 0
-695 -735 0
-695 -736 0
-695 -737 0
-695 -738 0
-695 -739 0
-695 -740 0
-695 -741 0
-695 -742 0
-695 -743 0
-695 -744 0
-695 -745 0
-695 -746 0
-695 -747 0
-695 -748 0
-696 -697 0
-696 -698 0
-696 -699 0
-696 -700 0
-696 -701 0
-696 -702 0
-696 -703 0
-696 -704 0
-696 -705 0
-696 -706 0
-696 -707 0
-696 -708 0
-696 -709 0
-696 -710 0
-696 -711 0
-696 -712 0
-696 -713 0
-696 -714 0
-696 -715 0
-696 -716 0
-696 -717 0
-696 -718 0
-696 -719 0
-696 -720 0
-696 -721 0
-696 -722 0
-696 -723 0
-696 -724 0
-696 -725 0
-696 -726 0
-696 -727 0
-696 -728 0
-696 -729 0
-696 -730 0
-696 -731 0
-696 -732 0
-696 -733 0
-696 -734 0
-696 -735 0
-696 -736 0
-696 -737 0
-696 -738 0
-696 -739 0
-696 -740 0
-696 -741 0
-696 -742 0
-696 -743 0
-696 -744 0
-696 -745 0
-696 -746 0
-696 -747 0
-696 -748 0
-697 -698 0
-697 -699 0
-697 -700 0
-697 -701 0
-697 -702 0
-697 -703 0
-697 -704 0
-697 -705 0
-697 -706 0
-697 -707 0
-697 -708 0
-697 -709 0
-697 -710 0
-697 -711 0
-697 -712 0
-697 -713 0
-697 -714 0
-697 -715 0
-697 -716 0
-697 -717 0
-697 -718 0
-697 -719 0
-697 -720 0
-697 -721 0
-697 -722 0
-697 -723 0
-697 -724 0
-697 -725 0
-697 -726 0
-697 -727 0
-697 -728 0
-697 -729 0
-697 -730 0
-697 -731 0
-697 -732 0
-697 -733 0
-697 -734 0
-697 -735 0
-697 -736 0
-697 -737 0
-697 -738 0
-697 -739 0
-697 -740 0
-697 -741 0
-697 -742 0
-697 -743 0
-697 -744 0
-697 -745 0
-697 -746 0
-697 -747 0
-697 -748 0
-698 -699 0
-698 -700 0
-698 -701 0
-698 -702 0
-698 -703 0
-698 -704 0
-698 -705 0
-698 -706 0
-698 -707 0
-698 -708 0
-698 -709 0
-698 -710 0
-698 -711 0
-698 -712 0
-698 -713 0
-698 -714 0
-698 -715 0
-698 -716 0
-698 -717 0
-698 -718 0
-698 -719 0
-698 -720 0
-698 -721 0
-698 -722 0
-698 -723 0
-698 -724 0
-698 -725 0
-698 -726 0
-698 -727 0
-698 -728 0
-698 -729 0
-698 -730 0
-698 -731 0
-698 -732 0
-698 -733 0
-698 -734 0
-698 -735 0
-698 -736 0
-698 -737 0
-698 -738 0
-698 -739 0
-698 -740 0
-698 -741 0
-698 -742 0
-698 -743 0
-698 -744 0
-698 -745 0
-698 -746 0
-698 -747 0
-698 -748 0
-699 -700 0
-699 -701 0
-699 -702 0
-699 -703 0
-699 -704 0
-699 -705 0
-699 -706 0
-699 -707 0
-699 -708 0
-699 -709 0
-699 -710 0
-699 -711 0
-699 -712 0
-699 -713 0
-699 -714 0
-699 -715 0
-699 -716 0
-699 -717 0
-699 -718 0
-699 -719 0
-699 -720 0
-699 -721 0
-699 -722 0
-699 -723 0
-699 -724 0
-699 -725 0
-699 -726 0
-699 -727 0
-699 -728 0
-699 -729 0
-699 -730 0
-699 -731 0
-699 -732 0
-699 -733 0
-699 -734 0
-699 -735 0
-699 -736 0
-699 -737 0
-699 -738 0
-699 -739 0
-699 -740 0
-699 -741 0
-699 -742 0
-699 -743 0
-699 -744 0
-699 -745 0
-699 -746 0
-699 -747 0
-699 -748 0
-700 -701 0
-700 -702 0
-700 -703 0
-700 -704 0
-700 -705 0
-700 -706 0
-700 -707 0
-700 -708 0
-700 -709 0
-700 -710 0
-700 -711 0
-700 -712 0
-700 -713 0
-700 -714 0
-700 -715 0
-700 -716 0
-700 -717 0
-700 -718 0
-700 -719 0
-700 -720 0
-700 -721 0
-700 -722 0
-700 -723 0
-700 -724 0
-700 -725 0
-700 -726 0
-700 -727 0
-700 -728 0
-700 -729 0
-700 -730 0
-700 -731 0
-700 -732 0
-700 -733 0
-700 -734 0
-700 -735 0
-700 -736 0
-700 -737 0
-700 -738 0
-700 -739 0
-700 -740 0
-700 -741 0
-700 -742 0
-700 -743 0
-700 -744 0
-700 -745 0
-700 -746 0
-700 -747 0
-700 -748 0
-701 -702 0
-701 -703 0
-701 -704 0
-701 -705 0
-701 -706 0
-701 -707 0
-701 -708 0
-701 -709 0
-701 -710 0
-701 -711 0
-701 -712 0
-701 -713 0
-701 -714 0
-701 -715 0
-701 -716 0
-701 -717 0
-701 -718 0
-701 -719 0
-701 -720 0
-701 -721 0
-701 -722 0
-701 -723 0
-701 -724 0
-701 -725 0
-701 -726 0
-701 -727 0
-701 -728 0
-701 -729 0
-701 -730 0
-701 -731 0
-701 -732 0
-701 -733 0
-701 -734 0
-701 -735 0
-701 -736 0
-701 -737 0
-701 -738 0
-701 -739 0
-701 -740 0
-701 -741 0
-701 -742 0
-701 -743 0
-701 -744 0
-701 -745 0
-701 -746 0
-701 -747 0
-701 -748 0
-702 -703 0
-702 -704 0
-702 -705 0
-702 -706 0
-702 -707 0
-702 -708 0
-702 -709 0
-702 -710 0
-702 -711 0
-702 -712 0
-702 -713 0
-702 -714 0
-702 -715 0
-702 -716 0
-702 -717 0
-702 -718 0
-702 -719 0
-702 -720 0
-702 -721 0
-702 -722 0
-702 -723 0
-702 -724 0
-702 -725 0
-702 -726 0
-702 -727 0
-702 -728 0
-702 -729 0
-702 -730 0
-702 -731 0
-702 -732 0
-702 -733 0
-702 -734 0
-702 -735 0
-702 -736 0
-702 -737 0
-702 -738 0
-702 -739 0
-702 -740 0
-702 -741 0
-702 -742 0
-702 -743 0
-702 -744 0
-702 -745 0
-702 -746 0
-702 -747 0
-702 -748 0
-703 -704 0
-703 -705 0
-703 -706 0
-703 -707 0
-703 -708 0
-703 -709 0
-703 -710 0
-703 -711 0
-703 -712 0
-703 -713 0
-703 -714 0
-703 -715 0
-703 -716 0
-703 -717 0
-703 -718 0
-703 -719 0
-703 -720 0
-703 -721 0
-703 -722 0
-703 -723 0
-703 -724 0
-703 -725 0
-703 -726 0
-703 -727 0
-703 -728 0
-703 -729 0
-703 -730 0
-703 -731 0
-703 -732 0
-703 -733 0
-703 -734 0
-703 -735 0
-703 -736 0
-703 -737 0
-703 -738 0
-703 -739 0
-703 -740 0
-703 -741 0
-703 -742 0
-703 -743 0
-703 -744 0
-703 -745 0
-703 -746 0
-703 -747 0
-703 -748 0
-704 -705 0
-704 -706 0
-704 -707 0
-704 -708 0
-704 -709 0
-704 -710 0
-704 -711 0
-704 -712 0
-704 -713 0
-704 -714 0
-704 -715 0
-704 -716 0
-704 -717 0
-704 -718 0
-704 -719 0
-704 -720 0
-704 -721 0
-704 -722 0
-704 -723 0
-704 -724 0
-704 -725 0
-704 -726 0
-704 -727 0
-704 -728 0
-704 -729 0
-704 -730 0
-704 -731 0
-704 -732 0
-704 -733 0
-704 -734 0
-704 -735 0
-704 -736 0
-704 -737 0
-704 -738 0
-704 -739 0
-704 -740 0
-704 -741 0
-704 -742 0
-704 -743 0
-704 -744 0
-704 -745 0
-704 -746 0
-704 -747 0
-704 -748 0
-705 -706 0
-705 -707 0
-705 -708 0
-705 -709 0
-705 -710 0
-705 -711 0
-705 -712 0
-705 -713 0
-705 -714 0
-705 -715 0
-705 -716 0
-705 -717 0
-705 -718 0
-705 -719 0
-705 -720 0
-705 -721 0
-705 -722 0
-705 -723 0
-705 -724 0
-705 -725 0
-705 -726 0
-705 -727 0
-705 -728 0
-705 -729 0
-705 -730 0
-705 -731 0
-705 -732 0
-705 -733 0
-705 -734 0
-705 -735 0
-705 -736 0
-705 -737 0
-705 -738 0
-705 -739 0
-705 -740 0
-705 -741 0
-705 -742 0
-705 -743 0
-705 -744 0
-705 -745 0
-705 -746 0
-705 -747 0
-705 -748 0
-706 -707 0
-706 -708 0
-706 -709 0
-706 -710 0
-706 -711 0
-706 -712 0
-706 -713 0
-706 -714 0
-706 -715 0
-706 -716 0
-706 -717 0
-706 -718 0
-706 -719 0
-706 -720 0
-706 -721 0
-706 -722 0
-706 -723 0
-706 -724 0
-706 -725 0
-706 -726 0
-706 -727 0
-706 -728 0
-706 -729 0
-706 -730 0
-706 -731 0
-706 -732 0
-706 -733 0
-706 -734 0
-706 -735 0
-706 -736 0
-706 -737 0
-706 -738 0
-706 -739 0
-706 -740 0
-706 -741 0
-706 -742 0
-706 -743 0
-706 -744 0
-706 -745 0
-706 -746 0
-706 -747 0
-706 -748 0
-707 -708 0
-707 -709 0
-707 -710 0
-707 -711 0
-707 -712 0
-707 -713 0
-707 -714 0
-707 -715 0
-707 -716 0
-707 -717 0
-707 -718 0
-707 -719 0
-707 -720 0
-707 -721 0
-707 -722 0
-707 -723 0
-707 -724 0
-707 -725 0
-707 -726 0
-707 -727 0
-707 -728 0
-707 -729 0
-707 -730 0
-707 -731 0
-707 -732 0
-707 -733 0
-707 -734 0
-707 -735 0
-707 -736 0
-707 -737 0
-707 -738 0
-707 -739 0
-707 -740 0
-707 -741 0
-707 -742 0
-707 -743 0
-707 -744 0
-707 -745 0
-707 -746 0
-707 -747 0
-707 -748 0
-708 -709 0
-708 -710 0
-708 -711 0
-708 -712 0
-708 -713 0
-708 -714 0
-708 -715 0
-708 -716 0
-708 -717 0
-708 -718 0
-708 -719 0
-708 -720 0
-708 -721 0
-708 -722 0
-708 -723 0
-708 -724 0
-708 -725 0
-708 -726 0
-708 -727 0
-708 -728 0
-708 -729 0
-708 -730 0
-708 -731 0
-708 -732 0
-708 -733 0
-708 -734 0
-708 -735 0
-708 -736 0
-708 -737 0
-708 -738 0
-708 -739 0
-708 -740 0
-708 -741 0
-708 -742 0
-708 -743 0
-708 -744 0
-708 -745 0
-708 -746 0
-708 -747 0
-708 -748 0
-709 -710 0
-709 -711 0
-709 -712 0
-709 -713 0
-709 -714 0
-709 -715 0
-709 -716 0
-709 -717 0
-709 -718 0
-709 -719 0
-709 -720 0
-709 -721 0
-709 -722 0
-709 -723 0
-709 -724 0
-709 -725 0
-709 -726 0
-709 -727 0
-709 -728 0
-709 -729 0
-709 -730 0
-709 -731 0
-709 -732 0
-709 -733 0
-709 -734 0
-709 -735 0
-709 -736 0
-709 -737 0
-709 -738 0
-709 -739 0
-709 -740 0
-709 -741 0
-709 -742 0
-709 -743 0
-709 -744 0
-709 -745 0
-709 -746 0
-709 -747 0
-709 -748 0
-710 -711 0
-710 -712 0
-710 -713 0
-710 -714 0
-710 -715 0
-710 -716 0
-710 -717 0
-710 -718 0
-710 -719 0
-710 -720 0
-710 -721 0
-710 -722 0
-710 -723 0
-710 -724 0
-710 -725 0
-710 -726 0
-710 -727 0
-710 -728 0
-710 -729 0
-710 -730 0
-710 -731 0
-710 -732 0
-710 -733 0
-710 -734 0
-710 -735 0
-710 -736 0
-710 -737 0
-710 -738 0
-710 -739 0
-710 -740 0
-710 -741 0
-710 -742 0
-710 -743 0
-710 -744 0
-710 -745 0
-710 -746 0
-710 -747 0
-710 -748 0
-711 -712 0
-711 -713 0
-711 -714 0
-711 -715 0
-711 -716 0
-711 -717 0
-711 -718 0
-711 -719 0
-711 -720 0
-711 -721 0
-711 -722 0
-711 -723 0
-711 -724 0
-711 -725 0
-711 -726 0
-711 -727 0
-711 -728 0
-711 -729 0
-711 -730 0
-711 -731 0
-711 -732 0
-711 -733 0
-711 -734 0
-711 -735 0
-711 -736 0
-711 -737 0
-711 -738 0
-711 -739 0
-711 -740 0
-711 -741 0
-711 -742 0
-711 -743 0
-711 -744 0
-711 -745 0
-711 -746 0
-711 -747 0
-711 -748 0
-712 -713 0
-712 -714 0
-712 -715 0
-712 -716 0
-712 -717 0
-712 -718 0
-712 -719 0
-712 -720 0
-712 -721 0
-712 -722 0
-712 -723 0
-712 -724 0
-712 -725 0
-712 -726 0
-712 -727 0
-712 -728 0
-712 -729 0
-712 -730 0
-712 -731 0
-712 -732 0
-712 -733 0
-712 -734 0
-712 -735 0
-712 -736 0
-712 -737 0
-712 -738 0
-712 -739 0
-712 -740 0
-712 -741 0
-712 -742 0
-712 -743 0
-712 -744 0
-712 -745 0
-712 -746 0
-712 -747 0
-712 -748 0
-713 -714 0
-713 -715 0
-713 -716 0
-713 -717 0
-713 -718 0
-713 -719 0
-713 -720 0
-713 -721 0
-713 -722 0
-713 -723 0
-713 -724 0
-713 -725 0
-713 -726 0
-713 -727 0
-713 -728 0
-713 -729 0
-713 -730 0
-713 -731 0
-713 -732 0
-713 -733 0
-713 -734 0
-713 -735 0
-713 -736 0
-713 -737 0
-713 -738 0
-713 -739 0
-713 -740 0
-713 -741 0
-713 -742 0
-713 -743 0
-713 -744 0
-713 -745 0
-713 -746 0
-713 -747 0
-713 -748 0
-714 -715 0
-714 -716 0
-714 -717 0
-714 -718 0
-714 -719 0
-714 -720 0
-714 -721 0
-714 -722 0
-714 -723 0
-714 -724 0
-714 -725 0
-714 -726 0
-714 -727 0
-714 -728 0
-714 -729 0
-714 -730 0
-714 -731 0
-714 -732 0
-714 -733 0
-714 -734 0
-714 -735 0
-714 -736 0
-714 -737 0
-714 -738 0
-714 -739 0
-714 -740 0
-714 -741 0
-714 -742 0
-714 -743 0
-714 -744 0
-714 -745 0
-714 -746 0
-714 -747 0
-714 -748 0
-715 -716 0
-715 -717 0
-715 -718 0
-715 -719 0
-715 -720 0
-715 -721 0
-715 -722 0
-715 -723 0
-715 -724 0
-715 -725 0
-715 -726 0
-715 -727 0
-715 -728 0
-715 -729 0
-715 -730 0
-715 -731 0
-715 -732 0
-715 -733 0
-715 -734 0
-715 -735 0
-715 -736 0
-715 -737 0
-715 -738 0
-715 -739 0
-715 -740 0
-715 -741 0
-715 -742 0
-715 -743 0
-715 -744 0
-715 -745 0
-715 -746 0
-715 -747 0
-715 -748 0
-716 -717 0
-716 -718 0
-716 -719 0
-716 -720 0
-716 -721 0
-716 -722 0
-716 -723 0
-716 -724 0
-716 -725 0
-716 -726 0
-716 -727 0
-716 -728 0
-716 -729 0
-716 -730 0
-716 -731 0
-716 -732 0
-716 -733 0
-716 -734 0
-716 -735 0
-716 -736 0
-716 -737 0
-716 -738 0
-716 -739 0
-716 -740 0
-716 -741 0
-716 -742 0
-716 -743 0
-716 -744 0
-716 -745 0
-716 -746 0
-716 -747 0
-716 -748 0
-717 -718 0
-717 -719 0
-717 -720 0
-717 -721 0
-717 -722 0
-717 -723 0
-717 -724 0
-717 -725 0
-717 -726 0
-717 -727 0
-717 -728 0
-717 -729 0
-717 -730 0
-717 -731 0
-717 -732 0
-717 -733 0
-717 -734 0
-717 -735 0
-717 -736 0
-717 -737 0
-717 -738 0
-717 -739 0
-717 -740 0
-717 -741 0
-717 -742 0
-717 -743 0
-717 -744 0
-717 -745 0
-717 -746 0
-717 -747 0
-717 -748 0
-718 -719 0
-718 -720 0
-718 -721 0
-718 -722 0
-718 -723 0
-718 -724 0
-718 -725 0
-718 -726 0
-718 -727 0
-718 -728 0
-718 -729 0
-718 -730 0
-718 -731 0
-718 -732 0
-718 -733 0
-718 -734 0
-718 -735 0
-718 -736 0
-718 -737 0
-718 -738 0
-718 -739 0
-718 -740 0
-718 -741 0
-718 -742 0
-718 -743 0
-718 -744 0
-718 -745 0
-718 -746 0
-718 -747 0
-718 -748 0
-719 -720 0
-719 -721 0
-719 -722 0
-719 -723 0
-719 -724 0
-719 -725 0
-719 -726 0
-719 -727 0
-719 -728 0
-719 -729 0
-719 -730 0
-719 -731 0
-719 -732 0
-719 -733 0
-719 -734 0
-719 -735 0
-719 -736 0
-719 -737 0
-719 -738 0
-719 -739 0
-719 -740 0
-719 -741 0
-719 -742 0
-719 -743 0
-719 -744 0
-719 -745 0
-719 -746 0
-719 -747 0
-719 -748 0
-720 -721 0
-720 -722 0
-720 -723 0
-720 -724 0
-720 -725 0
-720 -726 0
-720 -727 0
-720 -728 0
-720 -729 0
-720 -730 0
-720 -731 0
-720 -732 0
-720 -733 0
-720 -734 0
-720 -735 0
-720 -736 0
-720 -737 0
-720 -738 0
-720 -739 0
-720 -740 0
-720 -741 0
-720 -742 0
-720 -743 0
-720 -744 0
-720 -745 0
-720 -746 0
-720 -747 0
-720 -748 0
-721 -722 0
-721 -723 0
-721 -724 0
-721 -725 0
-721 -726 0
-721 -727 0
-721 -728 0
-721 -729 0
-721 -730 0
-721 -731 0
-721 -732 0
-721 -733 0
-721 -734 0
-721 -735 0
-721 -736 0
-721 -737 0
-721 -738 0
-721 -739 0
-721 -740 0
-721 -741 0
-721 -742 0
-721 -743 0
-721 -744 0
-721 -745 0
-721 -746 0
-721 -747 0
-721 -748 0
-722 -723 0
-722 -724 0
-722 -725 0
-722 -726 0
-722 -727 0
-722 -728 0
-722 -729 0
-722 -730 0
-722 -731 0
-722 -732 0
-722 -733 0
-722 -734 0
-722 -735 0
-722 -736 0
-722 -737 0
-722 -738 0
-722 -739 0
-722 -740 0
-722 -741 0
-722 -742 0
-722 -743 0
-722 -744 0
-722 -745 0
-722 -746 0
-722 -747 0
-722 -748 0
-723 -724 0
-723 -725 0
-723 -726 0
-723 -727 0
-723 -728 0
-723 -729 0
-723 -730 0
-723 -731 0
-723 -732 0
-723 -733 0
-723 -734 0
-723 -735 0
-723 -736 0
-723 -737 0
-723 -738 0
-723 -739 0
-723 -740 0
-723 -741 0
-723 -742 0
-723 -743 0
-723 -744 0
-723 -745 0
-723 -746 0
-723 -747 0
-723 -748 0
-724 -725 0
-724 -726 0
-724 -727 0
-724 -728 0
-724 -729 0
-724 -730 0
-724 -731 0
-724 -732 0
-724 -733 0
-724 -734 0
-724 -735 0
-724 -736 0
-724 -737 0
-724 -738 0
-724 -739 0
-724 -740 0
-724 -741 0
-724 -742 0
-724 -743 0
-724 -744 0
-724 -745 0
-724 -746 0
-724 -747 0
-724 -748 0
-725 -726 0
-725 -727 0
-725 -728 0
-725 -729 0
-725 -730 0
-725 -731 0
-725 -732 0
-725 -733 0
-725 -734 0
-725 -735 0
-725 -736 0
-725 -737 0
-725 -738 0
-725 -739 0
-725 -740 0
-725 -741 0
-725 -742 0
-725 -743 0
-725 -744 0
-725 -745 0
-725 -746 0
-725 -747 0
-725 -748 0
-726 -727 0
-726 -728 0
-726 -729 0
-726 -730 0
-726 -731 0
-726 -732 0
-726 -733 0
-726 -734 0
-726 -735 0
-726 -736 0
-726 -737 0
-726 -738 0
-726 -739 0
-726 -740 0
-726 -741 0
-726 -742 0
-726 -743 0
-726 -744 0
-726 -745 0
-726 -746 0
-726 -747 0
-726 -748 0
-727 -728 0
-727 -729 0
-727 -730 0
-727 -731 0
-727 -732 0
-727 -733 0
-727 -734 0
-727 -735 0
-727 -736 0
-727 -737 0
-727 -738 0
-727 -739 0
-727 -740 0
-727 -741 0
-727 -742 0
-727 -743 0
-727 -744 0
-727 -745 0
-727 -746 0
-727 -747 0
-727 -748 0
-728 -729 0
-728 -730 0
-728 -731 0
-728 -732 0
-728 -733 0
-728 -734 0
-728 -735 0
-728 -736 0
-728 -737 0
-728 -738 0
-728 -739 0
-728 -740 0
-728 -741 0
-728 -742 0
-728 -743 0
-728 -744 0
-728 -745 0
-728 -746 0
-728 -747 0
-728 -748 0
-729 -730 0
-729 -731 0
-729 -732 0
-729 -733 0
-729 -734 0
-729 -735 0
-729 -736 0
-729 -737 0
-729 -738 0
-729 -739 0
-729 -740 0
-729 -741 0
-729 -742 0
-729 -743 0
-729 -744 0
-729 -745 0
-729 -746 0
-729 -747 0
-729 -748 0
-730 -731 0
-730 -732 0
-730 -733 0
-730 -734 0
-730 -735 0
-730 -736 0
-730 -737 0
-730 -738 0
-730 -739 0
-730 -740 0
-730 -741 0
-730 -742 0
-730 -743 0
-730 -744 0
-730 -745 0
-730 -746 0
-730 -747 0
-730 -748 0
-731 -732 0
-731 -733 0
-731 -734 0
-731 -735 0
-731 -736 0
-731 -737 0
-731 -738 0
-731 -739 0
-731 -740 0
-731 -741 0
-731 -742 0
-731 -743 0
-731 -744 0
-731 -745 0
-731 -746 0
-731 -747 0
-731 -748 0
-732 -733 0
-732 -734 0
-732 -735 0
-732 -736 0
-732 -737 0
-732 -738 0
-732 -739 0
-732 -740 0
-732 -741 0
-732 -742 0
-732 -743 0
-732 -744 0
-732 -745 0
-732 -746 0
-732 -747 0
-732 -748 0
-733 -734 0
-733 -735 0
-733 -736 0
-733 -737 0
-733 -738 0
-733 -739 0
-733 -740 0
-733 -741 0
-733 -742 0
-733 -743 0
-733 -744 0
-733 -745 0
-733 -746 0
-733 -747 0
-733 -748 0
-734 -735 0
-734 -736 0
-734 -737 0
-734 -738 0
-734 -739 0
-734 -740 0
-734 -741 0
-734 -742 0
-734 -743 0
-734 -744 0
-734 -745 0
-734 -746 0
-734 -747 0
-734 -748 0
-735 -736 0
-735 -737 0
-735 -738 0
-735 -739 0
-735 -740 0
-735 -741 0
-735 -742 0
-735 -743 0
-735 -744 0
-735 -745 0
-735 -746 0
-735 -747 0
-735 -748 0
-736 -737 0
-736 -738 0
-736 -739 0
-736 -740 0
-736 -741 0
-736 -742 0
-736 -743 0
-736 -744 0
-736 -745 0
-736 -746 0
-736 -747 0
-736 -748 0
-737 -738 0
-737 -739 0
-737 -740 0
-737 -741 0
-737 -742 0
-737 -743 0
-737 -744 0
-737 -745 0
-737 -746 0
-737 -747 0
-737 -748 0
-738 -739 0
-738 -740 0
-738 -741 0
-738 -742 0
-738 -743 0
-738 -744 0
-738 -745 0
-738 -746 0
-738 -747 0
-738 -748 0
-739 -740 0
-739 -741 0
-739 -742 0
-739 -743 0
-739 -744 0
-739 -745 0
-739 -746 0
-739 -747 0
-739 -748 0
-740 -741 0
-740 -742 0
-740 -743 0
-740 -744 0
-740 -745 0
-740 -746 0
-740 -747 0
-740 -748 0
-741 -742 0
-741 -743 0
-741 -744 0
-741 -745 0
-741 -746 0
-741 -747 0
-741 -748 0
-742 -743 0
-742 -744 0
-742 -745 0
-742 -746 0
-742 -747 0
-742 -748 0
-743 -744 0
-743 -745 0
-743 -746 0
-743 -747 0
-743 -748 0
-744 -745 0
-744 -746 0
-744 -747 0
-744 -748 0
-745 -746 0
-745 -747 0
-745 -748 0
-746 -747 0
-746 -748 0
-747 -748 0
665 666 667 668 669 670 671 672 673 674 675 676 677 678 679 680 681 682 683 684 685 686 687 688 -173 214 0
665 666 667 668 669 670 671 672 673 674 675 676 677 678 679 680 681 682 683 684 685 686 687 688 -174 215 0
665 666 667 668 669 670 671 672 673 674 675 676 677 678 679 680 681 682 683 684 685 686 687 688 -175 216 0
665 666 667 668 669 670 671 672 673 674 675 676 677 678 679 680 681 682 683 684 685 686 687 688 -176 217 0
665 666 667 668 669 670 671 672 673 674 675 676 677 678 679 680 681 682 683 684 685 686 687 688 -177 218 0
665 666 667 668 669 670 671 672 673 674 675 676 677 678 679 680 681 682 683 684 685 686 687 688 -178 219 0
665 666 667 668 669 670 671 672 673 674 675 676 677 678 679 680 681 682 683 684 685 686 687 688 -179 220 0
665 666 667 668 669 670 671 672 673 674 675 676 677 678 679 680 681 682 683 684 685 686 687 688 -180 221 0
665 666 667 668 669 670 671 672 673 674 675 676 677 678 679 680 681 682 683 684 685 686 687 688 -181 222 0
665 666 667 668 669 670 671 672 673 674 675 676 677 678 679 680 681 682 683 684 685 686 687 688 -182 223 0
689 690 691 692 693 694 695 696 697 698 699 700 701 702 703 704 705 706 707 708 709 710 711 712 -183 224 0
689 690 691 692 693 694 695 696 697 698 699 700 701 702 703 704 705 706 707 708 709 710 711 712 -184 225 0
689 690 691 692 693 694 695 696 697 698 699 700 701 702 703 704 705 706 707 708 709 710 711 712 -185 226 0
689 690 691 692 693 694 695 696 697 698 699 700 701 702 703 704 705 706 707 708 709 710 711 712 -186 227 0
689 690 691 692 693 694 695 696 697 698 699 700 701 702 703 704 705 706 707 708 709 710 711 712 -187 228 0
689 690 691 692 693 694 695 696 697 698 699 700 701 702 703 704 705 706 707 708 709 710 711 712 -188 229 0
689 690 691 692 693 694 695 696 697 698 699 700 701 702 703 704 705 706 707 708 709 710 711 712 -189 230 0
689 690 691 692 693 694 695 696 697 698 699 700 701 702 703 704 705 706 707 708 709 710 711 712 -190 231 0
689 690 691 692 693 694 695 696 697 698 699 700 701 702 703 704 705 706 707 708 709 710 711 712 -191 232 0
689 690 691 692 693 694 695 696 697 698 699 700 701 702 703 704 705 706 707 708 709 710 711 712 -192 233 0
713 714 715 716 717 718 719 720 721 722 723 724 725 726 727 728 729 730 731 732 -193 234 0
713 714 715 716 717 718 719 720 721 722 723 724 725 726 727 728 729 730 731 732 -194 235 0
713 714 715 716 717 718 719 720 721 722 723 724 725 726 727 728 729 730 731 732 -195 236 0
713 714 715 716 717 718 719 720 721 722 723 724 725 726 727 728 729 730 731 732 -196 237 0
713 714 715 716 717 718 719 720 721 722 723 724 725 726 727 728 729 730 731 732 -197 238 0
713 714 715 716 717 718 719 720 721 722 723 724 725 726 727 728 729 730 731 732 -198 239 0
713 714 715 716 717 718 719 720 721 722 723 724 725 726 727 728 729 730 731 732 -199 240 0
713 714 715 716 717 718 719 720 721 722 723 724 725 726 727 728 729 730 731 732 -200 241 0
713 714 715 716 717 718 719 720 721 722 723 724 725 726 727 728 729 730 731 732 -201 242 0
733 734 735 736 737 738 739 740 741 742 743 744 745 746 747 748 -202 243 0
733 734 735 736 737 738 739 740 741 742 743 744 745 746 747 748 -203 244 0
733 734 735 736 737 738 739 740 741 742 743 744 745 746 747 748 -204 245 0
733 734 735 736 737 738 739 740 741 742 743 744 745 746 747 748 -205 246 0
733 734 735 736 737 738 739 740 741 742 743 744 745 746 747 748 -206 247 0
733 734 735 736 737 738 739 740 741 742 743 744 745 746 747 748 -207 248 0
733 734 735 736 737 738 739 740 741 742 743 744 745 746 747 748 -208 249 0
733 734 735 736 737 738 739 740 741 742 743 744 745 746 747 748 -209 250 0
-749 251 0
-749 252 0
-749 -214 0
-749 255 0
-749 -224 -230 262 0
-749 -224 -231 263 0
-749 -224 -232 264 0
-750 251 0
-750 252 0
-750 -215 0
-750 256 0
-750 -225 -230 262 0
-750 -225 -231 263 0
-750 -225 -232 264 0
-751 251 0
-751 252 0
-751 -216 0
-751 257 0
-751 -226 -230 262 0
-751 -226 -231 263 0
-751 -226 -232 264 0
-752 251 0
-752 252 0
-752 -217 0
-752 258 0
-752 -227 -230 262 0
-752 -227 -231 263 0
-752 -227 -232 264 0
-753 251 0
-753 252 0
-753 -218 0
-753 259 0
-753 -228 -230 262 0
-753 -228 -231 263 0
-753 -228 -232 264 0
-754 251 0
-754 252 0
-754 -219 0
-754 260 0
-754 -229 -230 262 0
-754 -229 -231 263 0
-754 -229 -232 264 0
-755 251 0
-755 253 0
-755 -214 0
-755 255 0
-755 -234 -239 262 0
-755 -234 -240 263 0
-755 -234 -241 264 0
-756 251 0
-756 253 0
-756 -215 0
-756 256 0
-756 -234 -239 262 0
-756 -235 -239 262 0
-756 -234 -240 263 0
-756 -235 -240 263 0
-756 -234 -241 264 0
-756 -235 -241 264 0
-757 251 0
-757 253 0
-757 -216 0
-757 257 0
-757 -235 -239 262 0
-757 -236 -239 262 0
-757 -235 -240 263 0
-757 -236 -240 263 0
-757 -235 -241 264 0
-757 -236 -241 264 0
-758 251 0
-758 253 0
-758 -217 0
-758 258 0
-758 -236 -239 262 0
-758 -237 -239 262 0
-758 -236 -240 263 0
-758 -237 -240 263 0
-758 -236 -241 264 0
-758 -237 -241 264 0
-759 251 0
-759 253 0
-759 -218 0
-759 259 0
-759 -237 -239 262 0
-759 -238 -239 262 0
-759 -237 -240 263 0
-759 -238 -240 263 0
-759 -237 -241 264 0
-759 -238 -241 264 0
-760 251 0
-760 253 0
-760 -219 0
-760 260 0
-760 -238 -239 262 0
-760 -238 -240 263 0
-760 -238 -241 264 0
-761 251 0
-761 254 0
-761 -214 0
-761 255 0
-761 -243 -247 262 0
-761 -243 -248 263 0
-761 -243 -249 264 0
-762 251 0
-762 254 0
-762 -215 0
-762 256 0
-762 -243 -247 262 0
-762 -244 -247 262 0
-762 -243 -248 263 0
-762 -244 -248 263 0
-762 -243 -249 264 0
-762 -244 -249 264 0
-763 251 0
-763 254 0
-763 -216 0
-763 257 0
-763 -243 -247 262 0
-763 -244 -247 262 0
-763 -245 -247 262 0
-763 -243 -248 263 0
-763 -244 -248 263 0
-763 -245 -248 263 0
-763 -243 -249 264 0
-763 -244 -249 264 0
-763 -245 -249 264 0
-764 251 0
-764 254 0
-764 -217 0
-764 258 0
-764 -244 -247 262 0
-764 -245 -247 262 0
-764 -246 -247 262 0
-764 -244 -248 263 0
-764 -245 -248 263 0
-764 -246 -248 263 0
-764 -244 -249 264 0
-764 -245 -249 264 0
-764 -246 -249 264 0
-765 251 0
-765 254 0
-765 -218 0
-765 259 0
-765 -245 -247 262 0
-765 -246 -247 262 0
-765 -245 -248 263 0
-765 -246 -248 263 0
-765 -245 -249 264 0
-765 -246 -249 264 0
-766 251 0
-766 254 0
-766 -219 0
-766 260 0
-766 -246 -247 262 0
-766 -246 -248 263 0
-766 -246 -249 264 0
-767 251 0
-767 -214 0
-767 255 0
-767 261 0
-768 251 0
-768 -215 0
-768 256 0
-768 261 0
-769 251 0
-769 -216 0
-769 257 0
-769 261 0
-770 251 0
-770 -217 0
-770 258 0
-770 261 0
-771 251 0
-771 -218 0
-771 259 0
-771 261 0
-772 251 0
-772 -219 0
-772 260 0
-772 261 0
-773 252 0
-773 251 0
-773 -224 0
-773 265 0
-773 -214 -220 272 0
-773 -214 -221 273 0
-773 -214 -222 274 0
-774 252 0
-774 251 0
-774 -225 0
-774 266 0
-774 -215 -220 272 0
-774 -215 -221 273 0
-774 -215 -222 274 0
-775 252 0
-775 251 0
-775 -226 0
-775 267 0
-775 -216 -220 272 0
-775 -216 -221 273 0
-775 -216 -222 274 0
-776 252 0
-776 251 0
-776 -227 0
-776 268 0
-776 -217 -220 272 0
-776 -217 -221 273 0
-776 -217 -222 274 0
-777 252 0
-777 251 0
-777 -228 0
-777 269 0
-777 -218 -220 272 0
-777 -218 -221 273 0
-777 -218 -222 274 0
-778 252 0
-778 251 0
-778 -229 0
-778 270 0
-778 -219 -220 272 0
-778 -219 -221 273 0
-778 -219 -222 274 0
-779 252 0
-779 253 0
-779 -224 0
-779 265 0
-779 -234 -239 272 0
-779 -234 -240 273 0
-779 -234 -241 274 0
-780 252 0
-780 253 0
-780 -225 0
-780 266 0
-780 -234 -239 272 0
-780 -235 -239 272 0
-780 -234 -240 273 0
-780 -235 -240 273 0
-780 -234 -241 274 0
-780 -235 -241 274 0
-781 252 0
-781 253 0
-781 -226 0
-781 267 0
-781 -235 -239 272 0
-781 -236 -239 272 0
-781 -235 -240 273 0
-781 -236 -240 273 0
-781 -235 -241 274 0
-781 -236 -241 274 0
-782 252 0
-782 253 0
-782 -227 0
-782 268 0
-782 -236 -239 272 0
-782 -237 -239 272 0
-782 -236 -240 273 0
-782 -237 -240 273 0
-782 -236 -241 274 0
-782 -237 -241 274 0
-783 252 0
-783 253 0
-783 -228 0
-783 269 0
-783 -237 -239 272 0
-783 -238 -239 272 0
-783 -237 -240 273 0
-783 -238 -240 273 0
-783 -237 -241 274 0
-783 -238 -241 274 0
-784 252 0
-784 253 0
-784 -229 0
-784 270 0
-784 -238 -239 272 0
-784 -238 -240 273 0
-784 -238 -241 274 0
-785 252 0
-785 254 0
-785 -224 0
-785 265 0
-785 -243 -247 272 0
-785 -243 -248 273 0
-785 -243 -249 274 0
-786 252 0
-786 254 0
-786 -225 0
-786 266 0
-786 -243 -247 272 0
-786 -244 -247 272 0
-786 -243 -248 273 0
-786 -244 -248 273 0
-786 -243 -249 274 0
-786 -244 -249 274 0
-787 252 0
-787 254 0
-787 -226 0
-787 267 0
-787 -243 -247 272 0
-787 -244 -247 272 0
-787 -245 -247 272 0
-787 -243 -248 273 0
-787 -244 -248 273 0
-787 -245 -248 273 0
-787 -243 -249 274 0
-787 -244 -249 274 0
-787 -245 -249 274 0
-788 252 0
-788 254 0
-788 -227 0
-788 268 0
-788 -244 -247 272 0
-788 -245 -247 272 0
-788 -246 -247 272 0
-788 -244 -248 273 0
-788 -245 -248 273 0
-788 -246 -248 273 0
-788 -244 -249 274 0
-788 -245 -249 274 0
-788 -246 -249 274 0
-789 252 0
-789 254 0
-789 -228 0
-789 269 0
-789 -245 -247 272 0
-789 -246 -247 272 0
-789 -245 -248 273 0
-789 -246 -248 273 0
-789 -245 -249 274 0
-789 -246 -249 274 0
-790 252 0
-790 254 0
-790 -229 0
-790 270 0
-790 -246 -247 272 0
-790 -246 -248 273 0
-790 -246 -249 274 0
-791 252 0
-791 -224 0
-791 265 0
-791 271 0
-792 252 0
-792 -225 0
-792 266 0
-792 271 0
-793 252 0
-793 -226 0
-793 267 0
-793 271 0
-794 252 0
-794 -227 0
-794 268 0
-794 271 0
-795 252 0
-795 -228 0
-795 269 0
-795 271 0
-796 252 0
-796 -229 0
-796 270 0
-796 271 0
-797 253 0
-797 251 0
-797 -234 0
-797 275 0
-797 -214 -220 281 0
-797 -215 -220 281 0
-797 -214 -221 282 0
-797 -215 -221 282 0
-797 -214 -222 283 0
-797 -215 -222 283 0
-798 253 0
-798 251 0
-798 -235 0
-798 276 0
-798 -215 -220 281 0
-798 -216 -220 281 0
-798 -215 -221 282 0
-798 -216 -221 282 0
-798 -215 -222 283 0
-798 -216 -222 283 0
-799 253 0
-799 251 0
-799 -236 0
-799 277 0
-799 -216 -220 281 0
-799 -217 -220 281 0
-799 -216 -221 282 0
-799 -217 -221 282 0
-799 -216 -222 283 0
-799 -217 -222 283 0
-800 253 0
-800 251 0
-800 -237 0
-800 278 0
-800 -217 -220 281 0
-800 -218 -220 281 0
-800 -217 -221 282 0
-800 -218 -221 282 0
-800 -217 -222 283 0
-800 -218 -222 283 0
-801 253 0
-801 251 0
-801 -238 0
-801 279 0
-801 -218 -220 281 0
-801 -219 -220 281 0
-801 -218 -221 282 0
-801 -219 -221 282 0
-801 -218 -222 283 0
-801 -219 -222 283 0
-802 253 0
-802 252 0
-802 -234 0
-802 275 0
-802 -224 -230 281 0
-802 -225 -230 281 0
-802 -224 -231 282 0
-802 -225 -231 282 0
-802 -224 -232 283 0
-802 -225 -232 283 0
-803 253 0
-803 252 0
-803 -235 0
-803 276 0
-803 -225 -230 281 0
-803 -226 -230 281 0
-803 -225 -231 282 0
-803 -226 -231 282 0
-803 -225 -232 283 0
-803 -226 -232 283 0
-804 253 0
-804 252 0
-804 -236 0
-804 277 0
-804 -226 -230 281 0
-804 -227 -230 281 0
-804 -226 -231 282 0
-804 -227 -231 282 0
-804 -226 -232 283 0
-804 -227 -232 283 0
-805 253 0
-805 252 0
-805 -237 0
-805 278 0
-805 -227 -230 281 0
-805 -228 -230 281 0
-805 -227 -231 282 0
-805 -228 -231 282 0
-805 -227 -232 283 0
-805 -228 -232 283 0
-806 253 0
-806 252 0
-806 -238 0
-806 279 0
-806 -228 -230 281 0
-806 -229 -230 281 0
-806 -228 -231 282 0
-806 -229 -231 282 0
-806 -228 -232 283 0
-806 -229 -232 283 0
-807 253 0
-807 254 0
-807 -234 0
-807 275 0
-807 -243 -247 281 0
-807 -244 -247 281 0
-807 -243 -248 282 0
-807 -244 -248 282 0
-807 -243 -249 283 0
-807 -244 -249 283 0
-808 253 0
-808 254 0
-808 -235 0
-808 276 0
-808 -243 -247 281 0
-808 -244 -247 281 0
-808 -245 -247 281 0
-808 -243 -248 282 0
-808 -244 -248 282 0
-808 -245 -248 282 0
-808 -243 -249 283 0
-808 -244 -249 283 0
-808 -245 -249 283 0
-809 253 0
-809 254 0
-809 -236 0
-809 277 0
-809 -243 -247 281 0
-809 -244 -247 281 0
-809 -245 -247 281 0
-809 -246 -247 281 0
-809 -243 -248 282 0
-809 -244 -248 282 0
-809 -245 -248 282 0
-809 -246 -248 282 0
-809 -243 -249 283 0
-809 -244 -249 283 0
-809 -245 -249 283 0
-809 -246 -249 283 0
-810 253 0
-810 254 0
-810 -237 0
-810 278 0
-810 -244 -247 281 0
-810 -245 -247 281 0
-810 -246 -247 281 0
-810 -244 -248 282 0
-810 -245 -248 282 0
-810 -246 -248 282 0
-810 -244 -249 283 0
-810 -245 -249 283 0
-810 -246 -249 283 0
-811 253 0
-811 254 0
-811 -238 0
-811 279 0
-811 -245 -247 281 0
-811 -246 -247 281 0
-811 -245 -248 282 0
-811 -246 -248 282 0
-811 -245 -249 283 0
-811 -246 -249 283 0
-812 253 0
-812 -234 0
-812 275 0
-812 280 0
-813 253 0
-813 -235 0
-813 276 0
-813 280 0
-814 253 0
-814 -236 0
-814 277 0
-814 280 0
-815 253 0
-815 -237 0
-815 278 0
-815 280 0
-816 253 0
-816 -238 0
-816 279 0
-816 280 0
-817 254 0
-817 251 0
-817 -243 0
-817 284 0
-817 -214 -220 289 0
-817 -215 -220 289 0
-817 -216 -220 289 0
-817 -214 -221 290 0
-817 -215 -221 290 0
-817 -216 -221 290 0
-817 -214 -222 291 0
-817 -215 -222 291 0
-817 -216 -222 291 0
-818 254 0
-818 251 0
-818 -244 0
-818 285 0
-818 -215 -220 289 0
-818 -216 -220 289 0
-818 -217 -220 289 0
-818 -215 -221 290 0
-818 -216 -221 290 0
-818 -217 -221 290 0
-818 -215 -222 291 0
-818 -216 -222 291 0
-818 -217 -222 291 0
-819 254 0
-819 251 0
-819 -245 0
-819 286 0
-819 -216 -220 289 0
-819 -217 -220 289 0
-819 -218 -220 289 0
-819 -216 -221 290 0
-819 -217 -221 290 0
-819 -218 -221 290 0
-819 -216 -222 291 0
-819 -217 -222 291 0
-819 -218 -222 291 0
-820 254 0
-820 251 0
-820 -246 0
-820 287 0
-820 -217 -220 289 0
-820 -218 -220 289 0
-820 -219 -220 289 0
-820 -217 -221 290 0
-820 -218 -221 290 0
-820 -219 -221 290 0
-820 -217 -222 291 0
-820 -218 -222 291 0
-820 -219 -222 291 0
-821 254 0
-821 252 0
-821 -243 0
-821 284 0
-821 -224 -230 289 0
-821 -225 -230 289 0
-821 -226 -230 289 0
-821 -224 -231 290 0
-821 -225 -231 290 0
-821 -226 -231 290 0
-821 -224 -232 291 0
-821 -225 -232 291 0
-821 -226 -232 291 0
-822 254 0
-822 252 0
-822 -244 0
-822 285 0
-822 -225 -230 289 0
-822 -226 -230 289 0
-822 -227 -230 289 0
-822 -225 -231 290 0
-822 -226 -231 290 0
-822 -227 -231 290 0
-822 -225 -232 291 0
-822 -226 -232 291 0
-822 -227 -232 291 0
-823 254 0
-823 252 0
-823 -245 0
-823 286 0
-823 -226 -230 289 0
-823 -227 -230 289 0
-823 -228 -230 289 0
-823 -226 -231 290 0
-823 -227 -231 290 0
-823 -228 -231 290 0
-823 -226 -232 291 0
-823 -227 -232 291 0
-823 -228 -232 291 0
-824 254 0
-824 252 0
-824 -246 0
-824 287 0
-824 -227 -230 289 0
-824 -228 -230 289 0
-824 -229 -230 289 0
-824 -227 -231 290 0
-824 -228 -231 290 0
-824 -229 -231 290 0
-824 -227 -232 291 0
-824 -228 -232 291 0
-824 -229 -232 291 0
-825 254 0
-825 253 0
-825 -243 0
-825 284 0
-825 -234 -239 289 0
-825 -235 -239 289 0
-825 -236 -239 289 0
-825 -234 -240 290 0
-825 -235 -240 290 0
-825 -236 -240 290 0
-825 -234 -241 291 0
-825 -235 -241 291 0
-825 -236 -241 291 0
-826 254 0
-826 253 0
-826 -244 0
-826 285 0
-826 -234 -239 289 0
-826 -235 -239 289 0
-826 -236 -239 289 0
-826 -237 -239 289 0
-826 -234 -240 290 0
-826 -235 -240 290 0
-826 -236 -240 290 0
-826 -237 -240 290 0
-826 -234 -241 291 0
-826 -235 -241 291 0
-826 -236 -241 291 0
-826 -237 -241 291 0
-827 254 0
-827 253 0
-827 -245 0
-827 286 0
-827 -235 -239 289 0
-827 -236 -239 289 0
-827 -237 -239 289 0
-827 -238 -239 289 0
-827 -235 -240 290 0
-827 -236 -240 290 0
-827 -237 -240 290 0
-827 -238 -240 290 0
-827 -235 -241 291 0
-827 -236 -241 291 0
-827 -237 -241 291 0
-827 -238 -241 291 0
-828 254 0
-828 253 0
-828 -246 0
-828 287 0
-828 -236 -239 289 0
-828 -237 -239 289 0
-828 -238 -239 289 0
-828 -236 -240 290 0
-828 -237 -240 290 0
-828 -238 -240 290 0
-828 -236 -241 291 0
-828 -237 -241 291 0
-828 -238 -241 291 0
-829 254 0
-829 -243 0
-829 284 0
-829 288 0
-830 254 0
-830 -244 0
-830 285 0
-830 288 0
-831 254 0
-831 -245 0
-831 286 0
-831 288 0
-832 254 0
-832 -246 0
-832 287 0
-832 288 0
749 750 751 752 753 754 755 756 757 758 759 760 761 762 763 764 765 766 767 768 769 770 771 772 773 774 775 776 777 778 779 780 781 782 783 784 785 786 787 788 789 790 791 792 793 794 795 796 797 798 799 800 801 802 803 804 805 806 807 808 809 810 811 812 813 814 815 816 817 818 819 820 821 822 823 824 825 826 827 828 829 830 831 832 0
-749 -750 0
-749 -751 0
-749 -752 0
-749 -753 0
-749 -754 0
-749 -755 0
-749 -756 0
-749 -757 0
-749 -758 0
-749 -759 0
-749 -760 0
-749 -761 0
-749 -762 0
-749 -763 0
-749 -764 0
-749 -765 0
-749 -766 0
-749 -767 0
-749 -768 0
-749 -769 0
-749 -770 0
-749 -771 0
-749 -772 0
-749 -773 0
-749 -774 0
-749 -775 0
-749 -776 0
-749 -777 0
-749 -778 0
-749 -779 0
-749 -780 0
-749 -781 0
-749 -782 0
-749 -783 0
-749 -784 0
-749 -785 0
-749 -786 0
-749 -787 0
-749 -788 0
-749 -789 0
-749 -790 0
-749 -791 0
-749 -792 0
-749 -793 0
-749 -794 0
-749 -795 0
-749 -796 0
-749 -797 0
-749 -798 0
-749 -799 0
-749 -800 0
-749 -801 0
-749 -802 0
-749 -803 0
-749 -804 0
-749 -805 0
-749 -806 0
-749 -807 0
-749 -808 0
-749 -809 0
-749 -810 0
-749 -811 0
-749 -812 0
-749 -813 0
-749 -814 0
-749 -815 0
-749 -816 0
-749 -817 0
-749 -818 0
-749 -819 0
-749 -820 0
-749 -821 0
-749 -822 0
-749 -823 0
-749 -824 0
-749 -825 0
-749 -826 0
-749 -827 0
-749 -828 0
-749 -829 0
-749 -830 0
-749 -831 0
-749 -832 0
-750 -751 0
-750 -752 0
-750 -753 0
-750 -754 0
-750 -755 0
-750 -756 0
-750 -757 0
-750 -758 0
-750 -759 0
-750 -760 0
-750 -761 0
-750 -762 0
-750 -763 0
-750 -764 0
-750 -765 0
-750 -766 0
-750 -767 0
-750 -768 0
-750 -769 0
-750 -770 0
-750 -771 0
-750 -772 0
-750 -773 0
-750 -774 0
-750 -775 0
-750 -776 0
-750 -777 0
-750 -778 0
-750 -779 0
-750 -780 0
-750 -781 0
-750 -782 0
-750 -783 0
-750 -784 0
-750 -785 0
-750 -786 0
-750 -787 0
-750 -788 0
-750 -789 0
-750 -790 0
-750 -791 0
-750 -792 0
-750 -793 0
-750 -794 0
-750 -795 0
-750 -796 0
-750 -797 0
-750 -798 0
-750 -799 0
-750 -800 0
-750 -801 0
-750 -802 0
-750 -803 0
-750 -804 0
-750 -805 0
-750 -806 0
-750 -807 0
-750 -808 0
-750 -809 0
-750 -810 0
-750 -811 0
-750 -812 0
-750 -813 0
-750 -814 0
-750 -815 0
-750 -816 0
-750 -817 0
-750 -818 0
-750 -819 0
-750 -820 0
-750 -821 0
-750 -822 0
-750 -823 0
-750 -824 0
-750 -825 0
-750 -826 0
-750 -827 0
-750 -828 0
-750 -829 0
-750 -830 0
-750 -831 0
-750 -832 0
-751 -752 0
-751 -753 0
-751 -754 0
-751 -755 0
-751 -756 0
-751 -757 0
-751 -758 0
-751 -759 0
-751 -760 0
-751 -761 0
-751 -762 0
-751 -763 0
-751 -764 0
-751 -765 0
-751 -766 0
-751 -767 0
-751 -768 0
-751 -769 0
-751 -770 0
-751 -771 0
-751 -772 0
-751 -773 0
-751 -774 0
-751 -775 0
-751 -776 0
-751 -777 0
-751 -778 0
-751 -779 0
-751 -780 0
-751 -781 0
-751 -782 0
-751 -783 0
-751 -784 0
-751 -785 0
-751 -786 0
-751 -787 0
-751 -788 0
-751 -789 0
-751 -790 0
-751 -791 0
-751 -792 0
-751 -793 0
-751 -794 0
-751 -795 0
-751 -796 0
-751 -797 0
-751 -798 0
-751 -799 0
-751 -800 0
-751 -801 0
-751 -802 0
-751 -803 0
-751 -804 0
-751 -805 0
-751 -806 0
-751 -807 0
-751 -808 0
-751 -809 0
-751 -810 0
-751 -811 0
-751 -812 0
-751 -813 0
-751 -814 0
-751 -815 0
-751 -816 0
-751 -817 0
-751 -818 0
-751 -819 0
-751 -820 0
-751 -821 0
-751 -822 0
-751 -823 0
-751 -824 0
-751 -825 0
-751 -826 0
-751 -827 0
-751 -828 0
-751 -829 0
-751 -830 0
-751 -831 0
-751 -832 0
-752 -753 0
-752 -754 0
-752 -755 0
-752 -756 0
-752 -757 0
-752 -758 0
-752 -759 0
-752 -760 0
-752 -761 0
-752 -762 0
-752 -763 0
-752 -764 0
-752 -765 0
-752 -766 0
-752 -767 0
-752 -768 0
-752 -769 0
-752 -770 0
-752 -771 0
-752 -772 0
-752 -773 0
-752 -774 0
-752 -775 0
-752 -776 0
-752 -777 0
-752 -778 0
-752 -779 0
-752 -780 0
-752 -781 0
-752 -782 0
-752 -783 0
-752 -784 0
-752 -785 0
-752 -786 0
-752 -787 0
-752 -788 0
-752 -789 0
-752 -790 0
-752 -791 0
-752 -792 0
-752 -793 0
-752 -794 0
-752 -795 0
-752 -796 0
-752 -797 0
-752 -798 0
-752 -799 0
-752 -800 0
-752 -801 0
-752 -802 0
-752 -803 0
-752 -804 0
-752 -805 0
-752 -806 0
-752 -807 0
-752 -808 0
-752 -809 0
-752 -810 0
-752 -811 0
-752 -812 0
-752 -813 0
-752 -814 0
-752 -815 0
-752 -816 0
-752 -817 0
-752 -818 0
-752 -819 0
-752 -820 0
-752 -821 0
-752 -822 0
-752 -823 0
-752 -824 0
-752 -825 0
-752 -826 0
-752 -827 0
-752 -828 0
-752 -829 0
-752 -830 0
-752 -831 0
-752 -832 0
-753 -754 0
-753 -755 0
-753 -756 0
-753 -757 0
-753 -758 0
-753 -759 0
-753 -760 0
-753 -761 0
-753 -762 0
-753 -763 0
-753 -764 0
-753 -765 0
-753 -766 0
-753 -767 0
-753 -768 0
-753 -769 0
-753 -770 0
-753 -771 0
-753 -772 0
-753 -773 0
-753 -774 0
-753 -775 0
-753 -776 0
-753 -777 0
-753 -778 0
-753 -779 0
-753 -780 0
-753 -781 0
-753 -782 0
-753 -783 0
-753 -784 0
-753 -785 0
-753 -786 0
-753 -787 0
-753 -788 0
-753 -789 0
-753 -790 0
-753 -791 0
-753 -792 0
-753 -793 0
-753 -794 0
-753 -795 0
-753 -796 0
-753 -797 0
-753 -798 0
-753 -799 0
-753 -800 0
-753 -801 0
-753 -802 0
-753 -803 0
-753 -804 0
-753 -805 0
-753 -806 0
-753 -807 0
-753 -808 0
-753 -809 0
-753 -810 0
-753 -811 0
-753 -812 0
-753 -813 0
-753 -814 0
-753 -815 0
-753 -816 0
-753 -817 0
-753 -818 0
-753 -819 0
-753 -820 0
-753 -821 0
-753 -822 0
-753 -823 0
-753 -824 0
-753 -825 0
-753 -826 0
-753 -827 0
-753 -828 0
-753 -829 0
-753 -830 0
-753 -831 0
-753 -832 0
-754 -755 0
-754 -756 0
-754 -757 0
-754 -758 0
-754 -759 0
-754 -760 0
-754 -761 0
-754 -762 0
-754 -763 0
-754 -764 0
-754 -765 0
-754 -766 0
-754 -767 0
-754 -768 0
-754 -769 0
-754 -770 0
-754 -771 0
-754 -772 0
-754 -773 0
-754 -774 0
-754 -775 0
-754 -776 0
-754 -777 0
-754 -778 0
-754 -779 0
-754 -780 0
-754 -781 0
-754 -782 0
-754 -783 0
-754 -784 0
-754 -785 0
-754 -786 0
-754 -787 0
-754 -788 0
-754 -789 0
-754 -790 0
-754 -791 0
-754 -792 0
-754 -793 0
-754 -794 0
-754 -795 0
-754 -796 0
-754 -797 0
-754 -798 0
-754 -799 0
-754 -800 0
-754 -801 0
-754 -802 0
-754 -803 0
-754 -804 0
-754 -805 0
-754 -806 0
-754 -807 0
-754 -808 0
-754 -809 0
-754 -810 0
-754 -811 0
-754 -812 0
-754 -813 0
-754 -814 0
-754 -815 0
-754 -816 0
-754 -817 0
-754 -818 0
-754 -819 0
-754 -820 0
-754 -821 0
-754 -822 0
-754 -823 0
-754 -824 0
-754 -825 0
-754 -826 0
-754 -827 0
-754 -828 0
-754 -829 0
-754 -830 0
-754 -831 0
-754 -832 0
-755 -756 0
-755 -757 0
-755 -758 0
-755 -759 0
-755 -760 0
-755 -761 0
-755 -762 0
-755 -763 0
-755 -764 0
-755 -765 0
-755 -766 0
-755 -767 0
-755 -768 0
-755 -769 0
-755 -770 0
-755 -771 0
-755 -772 0
-755 -773 0
-755 -774 0
-755 -775 0
-755 -776 0
-755 -777 0
-755 -778 0
-755 -779 0
-755 -780 0
-755 -781 0
-755 -782 0
-755 -783 0
-755 -784 0
-755 -785 0
-755 -786 0
-755 -787 0
-755 -788 0
-755 -789 0
-755 -790 0
-755 -791 0
-755 -792 0
-755 -793 0
-755 -794 0
-755 -795 0
-755 -796 0
-755 -797 0
-755 -798 0
-755 -799 0
-755 -800 0
-755 -801 0
-755 -802 0
-755 -803 0
-755 -804 0
-755 -805 0
-755 -806 0
-755 -807 0
-755 -808 0
-755 -809 0
-755 -810 0
-755 -811 0
-755 -812 0
-755 -813 0
-755 -814 0
-755 -815 0
-755 -816 0
-755 -817 0
-755 -818 0
-755 -819 0
-755 -820 0
-755 -821 0
-755 -822 0
-755 -823 0
-755 -824 0
-755 -825 0
-755 -826 0
-755 -827 0
-755 -828 0
-755 -829 0
-755 -830 0
-755 -831 0
-755 -832 0
-756 -757 0
-756 -758 0
-756 -759 0
-756 -760 0
-756 -761 0
-756 -762 0
-756 -763 0
-756 -764 0
-756 -765 0
-756 -766 0
-756 -767 0
-756 -768 0
-756 -769 0
-756 -770 0
-756 -771 0
-756 -772 0
-756 -773 0
-756 -774 0
-756 -775 0
-756 -776 0
-756 -777 0
-756 -778 0
-756 -779 0
-756 -780 0
-756 -781 0
-756 -782 0
-756 -783 0
-756 -784 0
-756 -785 0
-756 -786 0
-756 -787 0
-756 -788 0
-756 -789 0
-756 -790 0
-756 -791 0
-756 -792 0
-756 -793 0
-756 -794 0
-756 -795 0
-756 -796 0
-756 -797 0
-756 -798 0
-756 -799 0
-756 -800 0
-756 -801 0
-756 -802 0
-756 -803 0
-756 -804 0
-756 -805 0
-756 -806 0
-756 -807 0
-756 -808 0
-756 -809 0
-756 -810 0
-756 -811 0
-756 -812 0
-756 -813 0
-756 -814 0
-756 -815 0
-756 -816 0
-756 -817 0
-756 -818 0
-756 -819 0
-756 -820 0
-756 -821 0
-756 -822 0
-756 -823 0
-756 -824 0
-756 -825 0
-756 -826 0
-756 -827 0
-756 -828 0
-756 -829 0
-756 -830 0
-756 -831 0
-756 -832 0
-757 -758 0
-757 -759 0
-757 -760 0
-757 -761 0
-757 -762 0
-757 -763 0
-757 -764 0
-757 -765 0
-757 -766 0
-757 -767 0
-757 -768 0
-757 -769 0
-757 -770 0
-757 -771 0
-757 -772 0
-757 -773 0
-757 -774 0
-757 -775 0
-757 -776 0
-757 -777 0
-757 -778 0
-757 -779 0
-757 -780 0
-757 -781 0
-757 -782 0
-757 -783 0
-757 -784 0
-757 -785 0
-757 -786 0
-757 -787 0
-757 -788 0
-757 -789 0
-757 -790 0
-757 -791 0
-757 -792 0
-757 -793 0
-757 -794 0
-757 -795 0
-757 -796 0
-757 -797 0
-757 -798 0
-757 -799 0
-757 -800 0
-757 -801 0
-757 -802 0
-757 -803 0
-757 -804 0
-757 -805 0
-757 -806 0
-757 -807 0
-757 -808 0
-757 -809 0
-757 -810 0
-757 -811 0
-757 -812 0
-757 -813 0
-757 -814 0
-757 -815 0
-757 -816 0
-757 -817 0
-757 -818 0
-757 -819 0
-757 -820 0
-757 -821 0
-757 -822 0
-757 -823 0
-757 -824 0
-757 -825 0
-757 -826 0
-757 -827 0
-757 -828 0
-757 -829 0
-757 -830 0
-757 -831 0
-757 -832 0
-758 -759 0
-758 -760 0
-758 -761 0
-758 -762 0
-758 -763 0
-758 -764 0
-758 -765 0
-758 -766 0
-758 -767 0
-758 -768 0
-758 -769 0
-758 -770 0
-758 -771 0
-758 -772 0
-758 -773 0
-758 -774 0
-758 -775 0
-758 -776 0
-758 -777 0
-758 -778 0
-758 -779 0
-758 -780 0
-758 -781 0
-758 -782 0
-758 -783 0
-758 -784 0
-758 -785 0
-758 -786 0
-758 -787 0
-758 -788 0
-758 -789 0
-758 -790 0
-758 -791 0
-758 -792 0
-758 -793 0
-758 -794 0
-758 -795 0
-758 -796 0
-758 -797 0
-758 -798 0
-758 -799 0
-758 -800 0
-758 -801 0
-758 -802 0
-758 -803 0
-758 -804 0
-758 -805 0
-758 -806 0
-758 -807 0
-758 -808 0
-758 -809 0
-758 -810 0
-758 -811 0
-758 -812 0
-758 -813 0
-758 -814 0
-758 -815 0
-758 -816 0
-758 -817 0
-758 -818 0
-758 -819 0
-758 -820 0
-758 -821 0
-758 -822 0
-758 -823 0
-758 -824 0
-758 -825 0
-758 -826 0
-758 -827 0
-758 -828 0
-758 -829 0
-758 -830 0
-758 -831 0
-758 -832 0
-759 -760 0
-759 -761 0
-759 -762 0
-759 -763 0
-759 -764 0
-759 -765 0
-759 -766 0
-759 -767 0
-759 -768 0
-759 -769 0
-759 -770 0
-759 -771 0
-759 -772 0
-759 -773 0
-759 -774 0
-759 -775 0
-759 -776 0
-759 -777 0
-759 -778 0
-759 -779 0
-759 -780 0
-759 -781 0
-759 -782 0
-759 -783 0
-759 -784 0
-759 -785 0
-759 -786 0
-759 -787 0
-759 -788 0
-759 -789 0
-759 -790 0
-759 -791 0
-759 -792 0
-759 -793 0
-759 -794 0
-759 -795 0
-759 -796 0
-759 -797 0
-759 -798 0
-759 -799 0
-759 -800 0
-759 -801 0
-759 -802 0
-759 -803 0
-759 -804 0
-759 -805 0
-759 -806 0
-759 -807 0
-759 -808 0
-759 -809 0
-759 -810 0
-759 -811 0
-759 -812 0
-759 -813 0
-759 -814 0
-759 -815 0
-759 -816 0
-759 -817 0
-759 -818 0
-759 -819 0
-759 -820 0
-759 -821 0
-759 -822 0
-759 -823 0
-759 -824 0
-759 -825 0
-759 -826 0
-759 -827 0
-759 -828 0
-759 -829 0
-759 -830 0
-759 -831 0
-759 -832 0
-760 -761 0
-760 -762 0
-760 -763 0
-760 -764 0
-760 -765 0
-760 -766 0
-760 -767 0
-760 -768 0
-760 -769 0
-760 -770 0
-760 -771 0
-760 -772 0
-760 -773 0
-760 -774 0
-760 -775 0
-760 -776 0
-760 -777 0
-760 -778 0
-760 -779 0
-760 -780 0
-760 -781 0
-760 -782 0
-760 -783 0
-760 -784 0
-760 -785 0
-760 -786 0
-760 -787 0
-760 -788 0
-760 -789 0
-760 -790 0
-760 -791 0
-760 -792 0
-760 -793 0
-760 -794 0
-760 -795 0
-760 -796 0
-760 -797 0
-760 -798 0
-760 -799 0
-760 -800 0
-760 -801 0
-760 -802 0
-760 -803 0
-760 -804 0
-760 -805 0
-760 -806 0
-760 -807 0
-760 -808 0
-760 -809 0
-760 -810 0
-760 -811 0
-760 -812 0
-760 -813 0
-760 -814 0
-760 -815 0
-760 -816 0
-760 -817 0
-760 -818 0
-760 -819 0
-760 -820 0
-760 -821 0
-760 -822 0
-760 -823 0
-760 -824 0
-760 -825 0
-760 -826 0
-760 -827 0
-760 -828 0
-760 -829 0
-760 -830 0
-760 -831 0
-760 -832 0
-761 -762 0
-761 -763 0
-761 -764 0
-761 -765 0
-761 -766 0
-761 -767 0
-761 -768 0
-761 -769 0
-761 -770 0
-761 -771 0
-761 -772 0
-761 -773 0
-761 -774 0
-761 -775 0
-761 -776 0
-761 -777 0
-761 -778 0
-761 -779 0
-761 -780 0
-761 -781 0
-761 -782 0
-761 -783 0
-761 -784 0
-761 -785 0
-761 -786 0
-761 -787 0
-761 -788 0
-761 -789 0
-761 -790 0
-761 -791 0
-761 -792 0
-761 -793 0
-761 -794 0
-761 -795 0
-761 -796 0
-761 -797 0
-761 -798 0
-761 -799 0
-761 -800 0
-761 -801 0
-761 -802 0
-761 -803 0
-761 -804 0
-761 -805 0
-761 -806 0
-761 -807 0
-761 -808 0
-761 -809 0
-761 -810 0
-761 -811 0
-761 -812 0
-761 -813 0
-761 -814 0
-761 -815 0
-761 -816 0
-761 -817 0
-761 -818 0
-761 -819 0
-761 -820 0
-761 -821 0
-761 -822 0
-761 -823 0
-761 -824 0
-761 -825 0
-761 -826 0
-761 -827 0
-761 -828 0
-761 -829 0
-761 -830 0
-761 -831 0
-761 -832 0
-762 -763 0
-762 -764 0
-762 -765 0
-762 -766 0
-762 -767 0
-762 -768 0
-762 -769 0
-762 -770 0
-762 -771 0
-762 -772 0
-762 -773 0
-762 -774 0
-762 -775 0
-762 -776 0
-762 -777 0
-762 -778 0
-762 -779 0
-762 -780 0
-762 -781 0
-762 -782 0
-762 -783 0
-762 -784 0
-762 -785 0
-762 -786 0
-762 -787 0
-762 -788 0
-762 -789 0
-762 -790 0
-762 -791 0
-762 -792 0
-762 -793 0
-762 -794 0
-762 -795 0
-762 -796 0
-762 -797 0
-762 -798 0
-762 -799 0
-762 -800 0
-762 -801 0
-762 -802 0
-762 -803 0
-762 -804 0
-762 -805 0
-762 -806 0
-762 -807 0
-762 -808 0
-762 -809 0
-762 -810 0
-762 -811 0
-762 -812 0
-762 -813 0
-762 -814 0
-762 -815 0
-762 -816 0
-762 -817 0
-762 -818 0
-762 -819 0
-762 -820 0
-762 -821 0
-762 -822 0
-762 -823 0
-762 -824 0
-762 -825 0
-762 -826 0
-762 -827 0
-762 -828 0
-762 -829 0
-762 -830 0
-762 -831 0
-762 -832 0
-763 -764 0
-763 -765 0
-763 -766 0
-763 -767 0
-763 -768 0
-763 -769 0
-763 -770 0
-763 -771 0
-763 -772 0
-763 -773 0
-763 -774 0
-763 -775 0
-763 -776 0
-763 -777 0
-763 -778 0
-763 -779 0
-763 -780 0
-763 -781 0
-763 -782 0
-763 -783 0
-763 -784 0
-763 -785 0
-763 -786 0
-763 -787 0
-763 -788 0
-763 -789 0
-763 -790 0
-763 -791 0
-763 -792 0
-763 -793 0
-763 -794 0
-763 -795 0
-763 -796 0
-763 -797 0
-763 -798 0
-763 -799 0
-763 -800 0
-763 -801 0
-763 -802 0
-763 -803 0
-763 -804 0
-763 -805 0
-763 -806 0
-763 -807 0
-763 -808 0
-763 -809 0
-763 -810 0
-763 -811 0
-763 -812 0
-763 -813 0
-763 -814 0
-763 -815 0
-763 -816 0
-763 -817 0
-763 -818 0
-763 -819 0
-763 -820 0
-763 -821 0
-763 -822 0
-763 -823 0
-763 -824 0
-763 -825 0
-763 -826 0
-763 -827 0
-763 -828 0
-763 -829 0
-763 -830 0
-763 -831 0
-763 -832 0
-764 -765 0
-764 -766 0
-764 -767 0
-764 -768 0
-764 -769 0
-764 -770 0
-764 -771 0
-764 -772 0
-764 -773 0
-764 -774 0
-764 -775 0
-764 -776 0
-764 -777 0
-764 -778 0
-764 -779 0
-764 -780 0
-764 -781 0
-764 -782 0
-764 -783 0
-764 -784 0
-764 -785 0
-764 -786 0
-764 -787 0
-764 -788 0
-764 -789 0
-764 -790 0
-764 -791 0
-764 -792 0
-764 -793 0
-764 -794 0
-764 -795 0
-764 -796 0
-764 -797 0
-764 -798 0
-764 -799 0
-764 -800 0
-764 -801 0
-764 -802 0
-764 -803 0
-764 -804 0
-764 -805 0
-764 -806 0
-764 -807 0
-764 -808 0
-764 -809 0
-764 -810 0
-764 -811 0
-764 -812 0
-764 -813 0
-764 -814 0
-764 -815 0
-764 -816 0
-764 -817 0
-764 -818 0
-764 -819 0
-764 -820 0
-764 -821 0
-764 -822 0
-764 -823 0
-764 -824 0
-764 -825 0
-764 -826 0
-764 -827 0
-764 -828 0
-764 -829 0
-764 -830 0
-764 -831 0
-764 -832 0
-765 -766 0
-765 -767 0
-765 -768 0
-765 -769 0
-765 -770 0
-765 -771 0
-765 -772 0
-765 -773 0
-765 -774 0
-765 -775 0
-765 -776 0
-765 -777 0
-765 -778 0
-765 -779 0
-765 -780 0
-765 -781 0
-765 -782 0
-765 -783 0
-765 -784 0
-765 -785 0
-765 -786 0
-765 -787 0
-765 -788 0
-765 -789 0
-765 -790 0
-765 -791 0
-765 -792 0
-765 -793 0
-765 -794 0
-765 -795 0
-765 -796 0
-765 -797 0
-765 -798 0
-765 -799 0
-765 -800 0
-765 -801 0
-765 -802 0
-765 -803 0
-765 -804 0
-765 -805 0
-765 -806 0
-765 -807 0
-765 -808 0
-765 -809 0
-765 -810 0
-765 -811 0
-765 -812 0
-765 -813 0
-765 -814 0
-765 -815 0
-765 -816 0
-765 -817 0
-765 -818 0
-765 -819 0
-765 -820 0
-765 -821 0
-765 -822 0
-765 -823 0
-765 -824 0
-765 -825 0
-765 -826 0
-765 -827 0
-765 -828 0
-765 -829 0
-765 -830 0
-765 -831 0
-765 -832 0
-766 -767 0
-766 -768 0
-766 -769 0
-766 -770 0
-766 -771 0
-766 -772 0
-766 -773 0
-766 -774 0
-766 -775 0
-766 -776 0
-766 -777 0
-766 -778 0
-766 -779 0
-766 -780 0
-766 -781 0
-766 -782 0
-766 -783 0
-766 -784 0
-766 -785 0
-766 -786 0
-766 -787 0
-766 -788 0
-766 -789 0
-766 -790 0
-766 -791 0
-766 -792 0
-766 -793 0
-766 -794 0
-766 -795 0
-766 -796 0
-766 -797 0
-766 -798 0
-766 -799 0
-766 -800 0
-766 -801 0
-766 -802 0
-766 -803 0
-766 -804 0
-766 -805 0
-766 -806 0
-766 -807 0
-766 -808 0
-766 -809 0
-766 -810 0
-766 -811 0
-766 -812 0
-766 -813 0
-766 -814 0
-766 -815 0
-766 -816 0
-766 -817 0
-766 -818 0
-766 -819 0
-766 -820 0
-766 -821 0
-766 -822 0
-766 -823 0
-766 -824 0
-766 -825 0
-766 -826 0
-766 -827 0
-766 -828 0
-766 -829 0
-766 -830 0
-766 -831 0
-766 -832 0
-767 -768 0
-767 -769 0
-767 -770 0
-767 -771 0
-767 -772 0
-767 -773 0
-767 -774 0
-767 -775 0
-767 -776 0
-767 -777 0
-767 -778 0
-767 -779 0
-767 -780 0
-767 -781 0
-767 -782 0
-767 -783 0
-767 -784 0
-767 -785 0
-767 -786 0
-767 -787 0
-767 -788 0
-767 -789 0
-767 -790 0
-767 -791 0
-767 -792 0
-767 -793 0
-767 -794 0
-767 -795 0
-767 -796 0
-767 -797 0
-767 -798 0
-767 -799 0
-767 -800 0
-767 -801 0
-767 -802 0
-767 -803 0
-767 -804 0
-767 -805 0
-767 -806 0
-767 -807 0
-767 -808 0
-767 -809 0
-767 -810 0
-767 -811 0
-767 -812 0
-767 -813 0
-767 -814 0
-767 -815 0
-767 -816 0
-767 -817 0
-767 -818 0
-767 -819 0
-767 -820 0
-767 -821 0
-767 -822 0
-767 -823 0
-767 -824 0
-767 -825 0
-767 -826 0
-767 -827 0
-767 -828 0
-767 -829 0
-767 -830 0
-767 -831 0
-767 -832 0
-768 -769 0
-768 -770 0
-768 -771 0
-768 -772 0
-768 -773 0
-768 -774 0
-768 -775 0
-768 -776 0
-768 -777 0
-768 -778 0
-768 -779 0
-768 -780 0
-768 -781 0
-768 -782 0
-768 -783 0
-768 -784 0
-768 -785 0
-768 -786 0
-768 -787 0
-768 -788 0
-768 -789 0
-768 -790 0
-768 -791 0
-768 -792 0
-768 -793 0
-768 -794 0
-768 -795 0
-768 -796 0
-768 -797 0
-768 -798 0
-768 -799 0
-768 -800 0
-768 -801 0
-768 -802 0
-768 -803 0
-768 -804 0
-768 -805 0
-768 -806 0
-768 -807 0
-768 -808 0
-768 -809 0
-768 -810 0
-768 -811 0
-768 -812 0
-768 -813 0
-768 -814 0
-768 -815 0
-768 -816 0
-768 -817 0
-768 -818 0
-768 -819 0
-768 -820 0
-768 -821 0
-768 -822 0
-768 -823 0
-768 -824 0
-768 -825 0
-768 -826 0
-768 -827 0
-768 -828 0
-768 -829 0
-768 -830 0
-768 -831 0
-768 -832 0
-769 -770 0
-769 -771 0
-769 -772 0
-769 -773 0
-769 -774 0
-769 -775 0
-769 -776 0
-769 -777 0
-769 -778 0
-769 -779 0
-769 -780 0
-769 -781 0
-769 -782 0
-769 -783 0
-769 -784 0
-769 -785 0
-769 -786 0
-769 -787 0
-769 -788 0
-769 -789 0
-769 -790 0
-769 -791 0
-769 -792 0
-769 -793 0
-769 -794 0
-769 -795 0
-769 -796 0
-769 -797 0
-769 -798 0
-769 -799 0
-769 -800 0
-769 -801 0
-769 -802 0
-769 -803 0
-769 -804 0
-769 -805 0
-769 -806 0
-769 -807 0
-769 -808 0
-769 -809 0
-769 -810 0
-769 -811 0
-769 -812 0
-769 -813 0
-769 -814 0
-769 -815 0
-769 -816 0
-769 -817 0
-769 -818 0
-769 -819 0
-769 -820 0
-769 -821 0
-769 -822 0
-769 -823 0
-769 -824 0
-769 -825 0
-769 -826 0
-769 -827 0
-769 -828 0
-769 -829 0
-769 -830 0
-769 -831 0
-769 -832 0
-770 -771 0
-770 -772 0
-770 -773 0
-770 -774 0
-770 -775 0
-770 -776 0
-770 -777 0
-770 -778 0
-770 -779 0
-770 -780 0
-770 -781 0
-770 -782 0
-770 -783 0
-770 -784 0
-770 -785 0
-770 -786 0
-770 -787 0
-770 -788 0
-770 -789 0
-770 -790 0
-770 -791 0
-770 -792 0
-770 -793 0
-770 -794 0
-770 -795 0
-770 -796 0
-770 -797 0
-770 -798 0
-770 -799 0
-770 -800 0
-770 -801 0
-770 -802 0
-770 -803 0
-770 -804 0
-770 -805 0
-770 -806 0
-770 -807 0
-770 -808 0
-770 -809 0
-770 -810 0
-770 -811 0
-770 -812 0
-770 -813 0
-770 -814 0
-770 -815 0
-770 -816 0
-770 -817 0
-770 -818 0
-770 -819 0
-770 -820 0
-770 -821 0
-770 -822 0
-770 -823 0
-770 -824 0
-770 -825 0
-770 -826 0
-770 -827 0
-770 -828 0
-770 -829 0
-770 -830 0
-770 -831 0
-770 -832 0
-771 -772 0
-771 -773 0
-771 -774 0
-771 -775 0
-771 -776 0
-771 -777 0
-771 -778 0
-771 -779 0
-771 -780 0
-771 -781 0
-771 -782 0
-771 -783 0
-771 -784 0
-771 -785 0
-771 -786 0
-771 -787 0
-771 -788 0
-771 -789 0
-771 -790 0
-771 -791 0
-771 -792 0
-771 -793 0
-771 -794 0
-771 -795 0
-771 -796 0
-771 -797 0
-771 -798 0
-771 -799 0
-771 -800 0
-771 -801 0
-771 -802 0
-771 -803 0
-771 -804 0
-771 -805 0
-771 -806 0
-771 -807 0
-771 -808 0
-771 -809 0
-771 -810 0
-771 -811 0
-771 -812 0
-771 -813 0
-771 -814 0
-771 -815 0
-771 -816 0
-771 -817 0
-771 -818 0
-771 -819 0
-771 -820 0
-771 -821 0
-771 -822 0
-771 -823 0
-771 -824 0
-771 -825 0
-771 -826 0
-771 -827 0
-771 -828 0
-771 -829 0
-771 -830 0
-771 -831 0
-771 -832 0
-772 -773 0
-772 -774 0
-772 -775 0
-772 -776 0
-772 -777 0
-772 -778 0
-772 -779 0
-772 -780 0
-772 -781 0
-772 -782 0
-772 -783 0
-772 -784 0
-772 -785 0
-772 -786 0
-772 -787 0
-772 -788 0
-772 -789 0
-772 -790 0
-772 -791 0
-772 -792 0
-772 -793 0
-772 -794 0
-772 -795 0
-772 -796 0
-772 -797 0
-772 -798 0
-772 -799 0
-772 -800 0
-772 -801 0
-772 -802 0
-772 -803 0
-772 -804 0
-772 -805 0
-772 -806 0
-772 -807 0
-772 -808 0
-772 -809 0
-772 -810 0
-772 -811 0
-772 -812 0
-772 -813 0
-772 -814 0
-772 -815 0
-772 -816 0
-772 -817 0
-772 -818 0
-772 -819 0
-772 -820 0
-772 -821 0
-772 -822 0
-772 -823 0
-772 -824 0
-772 -825 0
-772 -826 0
-772 -827 0
-772 -828 0
-772 -829 0
-772 -830 0
-772 -831 0
-772 -832 0
-773 -774 0
-773 -775 0
-773 -776 0
-773 -777 0
-773 -778 0
-773 -779 0
-773 -780 0
-773 -781 0
-773 -782 0
-773 -783 0
-773 -784 0
-773 -785 0
-773 -786 0
-773 -787 0
-773 -788 0
-773 -789 0
-773 -790 0
-773 -791 0
-773 -792 0
-773 -793 0
-773 -794 0
-773 -795 0
-773 -796 0
-773 -797 0
-773 -798 0
-773 -799 0
-773 -800 0
-773 -801 0
-773 -802 0
-773 -803 0
-773 -804 0
-773 -805 0
-773 -806 0
-773 -807 0
-773 -808 0
-773 -809 0
-773 -810 0
-773 -811 0
-773 -812 0
-773 -813 0
-773 -814 0
-773 -815 0
-773 -816 0
-773 -817 0
-773 -818 0
-773 -819 0
-773 -820 0
-773 -821 0
-773 -822 0
-773 -823 0
-773 -824 0
-773 -825 0
-773 -826 0
-773 -827 0
-773 -828 0
-773 -829 0
-773 -830 0
-773 -831 0
-773 -832 0
-774 -775 0
-774 -776 0
-774 -777 0
-774 -778 0
-774 -779 0
-774 -780 0
-774 -781 0
-774 -782 0
-774 -783 0
-774 -784 0
-774 -785 0
-774 -786 0
-774 -787 0
-774 -788 0
-774 -789 0
-774 -790 0
-774 -791 0
-774 -792 0
-774 -793 0
-774 -794 0
-774 -795 0
-774 -796 0
-774 -797 0
-774 -798 0
-774 -799 0
-774 -800 0
-774 -801 0
-774 -802 0
-774 -803 0
-774 -804 0
-774 -805 0
-774 -806 0
-774 -807 0
-774 -808 0
-774 -809 0
-774 -810 0
-774 -811 0
-774 -812 0
-774 -813 0
-774 -814 0
-774 -815 0
-774 -816 0
-774 -817 0
-774 -818 0
-774 -819 0
-774 -820 0
-774 -821 0
-774 -822 0
-774 -823 0
-774 -824 0
-774 -825 0
-774 -826 0
-774 -827 0
-774 -828 0
-774 -829 0
-774 -830 0
-774 -831 0
-774 -832 0
-775 -776 0
-775 -777 0
-775 -778 0
-775 -779 0
-775 -780 0
-775 -781 0
-775 -782 0
-775 -783 0
-775 -784 0
-775 -785 0
-775 -786 0
-775 -787 0
-775 -788 0
-775 -789 0
-775 -790 0
-775 -791 0
-775 -792 0
-775 -793 0
-775 -794 0
-775 -795 0
-775 -796 0
-775 -797 0
-775 -798 0
-775 -799 0
-775 -800 0
-775 -801 0
-775 -802 0
-775 -803 0
-775 -804 0
-775 -805 0
-775 -806 0
-775 -807 0
-775 -808 0
-775 -809 0
-775 -810 0
-775 -811 0
-775 -812 0
-775 -813 0
-775 -814 0
-775 -815 0
-775 -816 0
-775 -817 0
-775 -818 0
-775 -819 0
-775 -820 0
-775 -821 0
-775 -822 0
-775 -823 0
-775 -824 0
-775 -825 0
-775 -826 0
-775 -827 0
-775 -828 0
-775 -829 0
-775 -830 0
-775 -831 0
-775 -832 0
-776 -777 0
-776 -778 0
-776 -779 0
-776 -780 0
-776 -781 0
-776 -782 0
-776 -783 0
-776 -784 0
-776 -785 0
-776 -786 0
-776 -787 0
-776 -788 0
-776 -789 0
-776 -790 0
-776 -791 0
-776 -792 0
-776 -793 0
-776 -794 0
-776 -795 0
-776 -796 0
-776 -797 0
-776 -798 0
-776 -799 0
-776 -800 0
-776 -801 0
-776 -802 0
-776 -803 0
-776 -804 0
-776 -805 0
-776 -806 0
-776 -807 0
-776 -808 0
-776 -809 0
-776 -810 0
-776 -811 0
-776 -812 0
-776 -813 0
-776 -814 0
-776 -815 0
-776 -816 0
-776 -817 0
-776 -818 0
-776 -819 0
-776 -820 0
-776 -821 0
-776 -822 0
-776 -823 0
-776 -824 0
-776 -825 0
-776 -826 0
-776 -827 0
-776 -828 0
-776 -829 0
-776 -830 0
-776 -831 0
-776 -832 0
-777 -778 0
-777 -779 0
-777 -780 0
-777 -781 0
-777 -782 0
-777 -783 0
-777 -784 0
-777 -785 0
-777 -786 0
-777 -787 0
-777 -788 0
-777 -789 0
-777 -790 0
-777 -791 0
-777 -792 0
-777 -793 0
-777 -794 0
-777 -795 0
-777 -796 0
-777 -797 0
-777 -798 0
-777 -799 0
-777 -800 0
-777 -801 0
-777 -802 0
-777 -803 0
-777 -804 0
-777 -805 0
-777 -806 0
-777 -807 0
-777 -808 0
-777 -809 0
-777 -810 0
-777 -811 0
-777 -812 0
-777 -813 0
-777 -814 0
-777 -815 0
-777 -816 0
-777 -817 0
-777 -818 0
-777 -819 0
-777 -820 0
-777 -821 0
-777 -822 0
-777 -823 0
-777 -824 0
-777 -825 0
-777 -826 0
-777 -827 0
-777 -828 0
-777 -829 0
-777 -830 0
-777 -831 0
-777 -832 0
-778 -779 0
-778 -780 0
-778 -781 0
-778 -782 0
-778 -783 0
-778 -784 0
-778 -785 0
-778 -786 0
-778 -787 0
-778 -788 0
-778 -789 0
-778 -790 0
-778 -791 0
-778 -792 0
-778 -793 0
-778 -794 0
-778 -795 0
-778 -796 0
-778 -797 0
-778 -798 0
-778 -799 0
-778 -800 0
-778 -801 0
-778 -802 0
-778 -803 0
-778 -804 0
-778 -805 0
-778 -806 0
-778 -807 0
-778 -808 0
-778 -809 0
-778 -810 0
-778 -811 0
-778 -812 0
-778 -813 0
-778 -814 0
-778 -815 0
-778 -816 0
-778 -817 0
-778 -818 0
-778 -819 0
-778 -820 0
-778 -821 0
-778 -822 0
-778 -823 0
-778 -824 0
-778 -825 0
-778 -826 0
-778 -827 0
-778 -828 0
-778 -829 0
-778 -830 0
-778 -831 0
-778 -832 0
-779 -780 0
-779 -781 0
-779 -782 0
-779 -783 0
-779 -784 0
-779 -785 0
-779 -786 0
-779 -787 0
-779 -788 0
-779 -789 0
-779 -790 0
-779 -791 0
-779 -792 0
-779 -793 0
-779 -794 0
-779 -795 0
-779 -796 0
-779 -797 0
-779 -798 0
-779 -799 0
-779 -800 0
-779 -801 0
-779 -802 0
-779 -803 0
-779 -804 0
-779 -805 0
-779 -806 0
-779 -807 0
-779 -808 0
-779 -809 0
-779 -810 0
-779 -811 0
-779 -812 0
-779 -813 0
-779 -814 0
-779 -815 0
-779 -816 0
-779 -817 0
-779 -818 0
-779 -819 0
-779 -820 0
-779 -821 0
-779 -822 0
-779 -823 0
-779 -824 0
-779 -825 0
-779 -826 0
-779 -827 0
-779 -828 0
-779 -829 0
-779 -830 0
-779 -831 0
-779 -832 0
-780 -781 0
-780 -782 0
-780 -783 0
-780 -784 0
-780 -785 0
-780 -786 0
-780 -787 0
-780 -788 0
-780 -789 0
-780 -790 0
-780 -791 0
-780 -792 0
-780 -793 0
-780 -794 0
-780 -795 0
-780 -796 0
-780 -797 0
-780 -798 0
-780 -799 0
-780 -800 0
-780 -801 0
-780 -802 0
-780 -803 0
-780 -804 0
-780 -805 0
-780 -806 0
-780 -807 0
-780 -808 0
-780 -809 0
-780 -810 0
-780 -811 0
-780 -812 0
-780 -813 0
-780 -814 0
-780 -815 0
-780 -816 0
-780 -817 0
-780 -818 0
-780 -819 0
-780 -820 0
-780 -821 0
-780 -822 0
-780 -823 0
-780 -824 0
-780 -825 0
-780 -826 0
-780 -827 0
-780 -828 0
-780 -829 0
-780 -830 0
-780 -831 0
-780 -832 0
-781 -782 0
-781 -783 0
-781 -784 0
-781 -785 0
-781 -786 0
-781 -787 0
-781 -788 0
-781 -789 0
-781 -790 0
-781 -791 0
-781 -792 0
-781 -793 0
-781 -794 0
-781 -795 0
-781 -796 0
-781 -797 0
-781 -798 0
-781 -799 0
-781 -800 0
-781 -801 0
-781 -802 0
-781 -803 0
-781 -804 0
-781 -805 0
-781 -806 0
-781 -807 0
-781 -808 0
-781 -809 0
-781 -810 0
-781 -811 0
-781 -812 0
-781 -813 0
-781 -814 0
-781 -815 0
-781 -816 0
-781 -817 0
-781 -818 0
-781 -819 0
-781 -820 0
-781 -821 0
-781 -822 0
-781 -823 0
-781 -824 0
-781 -825 0
-781 -826 0
-781 -827 0
-781 -828 0
-781 -829 0
-781 -830 0
-781 -831 0
-781 -832 0
-782 -783 0
-782 -784 0
-782 -785 0
-782 -786 0
-782 -787 0
-782 -788 0
-782 -789 0
-782 -790 0
-782 -791 0
-782 -792 0
-782 -793 0
-782 -794 0
-782 -795 0
-782 -796 0
-782 -797 0
-782 -798 0
-782 -799 0
-782 -800 0
-782 -801 0
-782 -802 0
-782 -803 0
-782 -804 0
-782 -805 0
-782 -806 0
-782 -807 0
-782 -808 0
-782 -809 0
-782 -810 0
-782 -811 0
-782 -812 0
-782 -813 0
-782 -814 0
-782 -815 0
-782 -816 0
-782 -817 0
-782 -818 0
-782 -819 0
-782 -820 0
-782 -821 0
-782 -822 0
-782 -823 0
-782 -824 0
-782 -825 0
-782 -826 0
-782 -827 0
-782 -828 0
-782 -829 0
-782 -830 0
-782 -831 0
-782 -832 0
-783 -784 0
-783 -785 0
-783 -786 0
-783 -787 0
-783 -788 0
-783 -789 0
-783 -790 0
-783 -791 0
-783 -792 0
-783 -793 0
-783 -794 0
-783 -795 0
-783 -796 0
-783 -797 0
-783 -798 0
-783 -799 0
-783 -800 0
-783 -801 0
-783 -802 0
-783 -803 0
-783 -804 0
-783 -805 0
-783 -806 0
-783 -807 0
-783 -808 0
-783 -809 0
-783 -810 0
-783 -811 0
-783 -812 0
-783 -813 0
-783 -814 0
-783 -815 0
-783 -816 0
-783 -817 0
-783 -818 0
-783 -819 0
-783 -820 0
-783 -821 0
-783 -822 0
-783 -823 0
-783 -824 0
-783 -825 0
-783 -826 0
-783 -827 0
-783 -828 0
-783 -829 0
-783 -830 0
-783 -831 0
-783 -832 0
-784 -785 0
-784 -786 0
-784 -787 0
-784 -788 0
-784 -789 0
-784 -790 0
-784 -791 0
-784 -792 0
-784 -793 0
-784 -794 0
-784 -795 0
-784 -796 0
-784 -797 0
-784 -798 0
-784 -799 0
-784 -800 0
-784 -801 0
-784 -802 0
-784 -803 0
-784 -804 0
-784 -805 0
-784 -806 0
-784 -807 0
-784 -808 0
-784 -809 0
-784 -810 0
-784 -811 0
-784 -812 0
-784 -813 0
-784 -814 0
-784 -815 0
-784 -816 0
-784 -817 0
-784 -818 0
-784 -819 0
-784 -820 0
-784 -821 0
-784 -822 0
-784 -823 0
-784 -824 0
-784 -825 0
-784 -826 0
-784 -827 0
-784 -828 0
-784 -829 0
-784 -830 0
-784 -831 0
-784 -832 0
-785 -786 0
-785 -787 0
-785 -788 0
-785 -789 0
-785 -790 0
-785 -791 0
-785 -792 0
-785 -793 0
-785 -794 0
-785 -795 0
-785 -796 0
-785 -797 0
-785 -798 0
-785 -799 0
-785 -800 0
-785 -801 0
-785 -802 0
-785 -803 0
-785 -804 0
-785 -805 0
-785 -806 0
-785 -807 0
-785 -808 0
-785 -809 0
-785 -810 0
-785 -811 0
-785 -812 0
-785 -813 0
-785 -814 0
-785 -815 0
-785 -816 0
-785 -817 0
-785 -818 0
-785 -819 0
-785 -820 0
-785 -821 0
-785 -822 0
-785 -823 0
-785 -824 0
-785 -825 0
-785 -826 0
-785 -827 0
-785 -828 0
-785 -829 0
-785 -830 0
-785 -831 0
-785 -832 0
-786 -787 0
-786 -788 0
-786 -789 0
-786 -790 0
-786 -791 0
-786 -792 0
-786 -793 0
-786 -794 0
-786 -795 0
-786 -796 0
-786 -797 0
-786 -798 0
-786 -799 0
-786 -800 0
-786 -801 0
-786 -802 0
-786 -803 0
-786 -804 0
-786 -805 0
-786 -806 0
-786 -807 0
-786 -808 0
-786 -809 0
-786 -810 0
-786 -811 0
-786 -812 0
-786 -813 0
-786 -814 0
-786 -815 0
-786 -816 0
-786 -817 0
-786 -818 0
-786 -819 0
-786 -820 0
-786 -821 0
-786 -822 0
-786 -823 0
-786 -824 0
-786 -825 0
-786 -826 0
-786 -827 0
-786 -828 0
-786 -829 0
-786 -830 0
-786 -831 0
-786 -832 0
-787 -788 0
-787 -789 0
-787 -790 0
-787 -791 0
-787 -792 0
-787 -793 0
-787 -794 0
-787 -795 0
-787 -796 0
-787 -797 0
-787 -798 0
-787 -799 0
-787 -800 0
-787 -801 0
-787 -802 0
-787 -803 0
-787 -804 0
-787 -805 0
-787 -806 0
-787 -807 0
-787 -808 0
-787 -809 0
-787 -810 0
-787 -811 0
-787 -812 0
-787 -813 0
-787 -814 0
-787 -815 0
-787 -816 0
-787 -817 0
-787 -818 0
-787 -819 0
-787 -820 0
-787 -821 0
-787 -822 0
-787 -823 0
-787 -824 0
-787 -825 0
-787 -826 0
-787 -827 0
-787 -828 0
-787 -829 0
-787 -830 0
-787 -831 0
-787 -832 0
-788 -789 0
-788 -790 0
-788 -791 0
-788 -792 0
-788 -793 0
-788 -794 0
-788 -795 0
-788 -796 0
-788 -797 0
-788 -798 0
-788 -799 0
-788 -800 0
-788 -801 0
-788 -802 0
-788 -803 0
-788 -804 0
-788 -805 0
-788 -806 0
-788 -807 0
-788 -808 0
-788 -809 0
-788 -810 0
-788 -811 0
-788 -812 0
-788 -813 0
-788 -814 0
-788 -815 0
-788 -816 0
-788 -817 0
-788 -818 0
-788 -819 0
-788 -820 0
-788 -821 0
-788 -822 0
-788 -823 0
-788 -824 0
-788 -825 0
-788 -826 0
-788 -827 0
-788 -828 0
-788 -829 0
-788 -830 0
-788 -831 0
-788 -832 0
-789 -790 0
-789 -791 0
-789 -792 0
-789 -793 0
-789 -794 0
-789 -795 0
-789 -796 0
-789 -797 0
-789 -798 0
-789 -799 0
-789 -800 0
-789 -801 0
-789 -802 0
-789 -803 0
-789 -804 0
-789 -805 0
-789 -806 0
-789 -807 0
-789 -808 0
-789 -809 0
-789 -810 0
-789 -811 0
-789 -812 0
-789 -813 0
-789 -814 0
-789 -815 0
-789 -816 0
-789 -817 0
-789 -818 0
-789 -819 0
-789 -820 0
-789 -821 0
-789 -822 0
-789 -823 0
-789 -824 0
-789 -825 0
-789 -826 0
-789 -827 0
-789 -828 0
-789 -829 0
-789 -830 0
-789 -831 0
-789 -832 0
-790 -791 0
-790 -792 0
-790 -793 0
-790 -794 0
-790 -795 0
-790 -796 0
-790 -797 0
-790 -798 0
-790 -799 0
-790 -800 0
-790 -801 0
-790 -802 0
-790 -803 0
-790 -804 0
-790 -805 0
-790 -806 0
-790 -807 0
-790 -808 0
-790 -809 0
-790 -810 0
-790 -811 0
-790 -812 0
-790 -813 0
-790 -814 0
-790 -815 0
-790 -816 0
-790 -817 0
-790 -818 0
-790 -819 0
-790 -820 0
-790 -821 0
-790 -822 0
-790 -823 0
-790 -824 0
-790 -825 0
-790 -826 0
-790 -827 0
-790 -828 0
-790 -829 0
-790 -830 0
-790 -831 0
-790 -832 0
-791 -792 0
-791 -793 0
-791 -794 0
-791 -795 0
-791 -796 0
-791 -797 0
-791 -798 0
-791 -799 0
-791 -800 0
-791 -801 0
-791 -802 0
-791 -803 0
-791 -804 0
-791 -805 0
-791 -806 0
-791 -807 0
-791 -808 0
-791 -809 0
-791 -810 0
-791 -811 0
-791 -812 0
-791 -813 0
-791 -814 0
-791 -815 0
-791 -816 0
-791 -817 0
-791 -818 0
-791 -819 0
-791 -820 0
-791 -821 0
-791 -822 0
-791 -823 0
-791 -824 0
-791 -825 0
-791 -826 0
-791 -827 0
-791 -828 0
-791 -829 0
-791 -830 0
-791 -831 0
-791 -832 0
-792 -793 0
-792 -794 0
-792 -795 0
-792 -796 0
-792 -797 0
-792 -798 0
-792 -799 0
-792 -800 0
-792 -801 0
-792 -802 0
-792 -803 0
-792 -804 0
-792 -805 0
-792 -806 0
-792 -807 0
-792 -808 0
-792 -809 0
-792 -810 0
-792 -811 0
-792 -812 0
-792 -813 0
-792 -814 0
-792 -815 0
-792 -816 0
-792 -817 0
-792 -818 0
-792 -819 0
-792 -820 0
-792 -821 0
-792 -822 0
-792 -823 0
-792 -824 0
-792 -825 0
-792 -826 0
-792 -827 0
-792 -828 0
-792 -829 0
-792 -830 0
-792 -831 0
-792 -832 0
-793 -794 0
-793 -795 0
-793 -796 0
-793 -797 0
-793 -798 0
-793 -799 0
-793 -800 0
-793 -801 0
-793 -802 0
-793 -803 0
-793 -804 0
-793 -805 0
-793 -806 0
-793 -807 0
-793 -808 0
-793 -809 0
-793 -810 0
-793 -811 0
-793 -812 0
-793 -813 0
-793 -814 0
-793 -815 0
-793 -816 0
-793 -817 0
-793 -818 0
-793 -819 0
-793 -820 0
-793 -821 0
-793 -822 0
-793 -823 0
-793 -824 0
-793 -825 0
-793 -826 0
-793 -827 0
-793 -828 0
-793 -829 0
-793 -830 0
-793 -831 0
-793 -832 0
-794 -795 0
-794 -796 0
-794 -797 0
-794 -798 0
-794 -799 0
-794 -800 0
-794 -801 0
-794 -802 0
-794 -803 0
-794 -804 0
-794 -805 0
-794 -806 0
-794 -807 0
-794 -808 0
-794 -809 0
-794 -810 0
-794 -811 0
-794 -812 0
-794 -813 0
-794 -814 0
-794 -815 0
-794 -816 0
-794 -817 0
-794 -818 0
-794 -819 0
-794 -820 0
-794 -821 0
-794 -822 0
-794 -823 0
-794 -824 0
-794 -825 0
-794 -826 0
-794 -827 0
-794 -828 0
-794 -829 0
-794 -830 0
-794 -831 0
-794 -832 0
-795 -796 0
-795 -797 0
-795 -798 0
-795 -799 0
-795 -800 0
-795 -801 0
-795 -802 0
-795 -803 0
-795 -804 0
-795 -805 0
-795 -806 0
-795 -807 0
-795 -808 0
-795 -809 0
-795 -810 0
-795 -811 0
-795 -812 0
-795 -813 0
-795 -814 0
-795 -815 0
-795 -816 0
-795 -817 0
-795 -818 0
-795 -819 0
-795 -820 0
-795 -821 0
-795 -822 0
-795 -823 0
-795 -824 0
-795 -825 0
-795 -826 0
-795 -827 0
-795 -828 0
-795 -829 0
-795 -830 0
-795 -831 0
-795 -832 0
-796 -797 0
-796 -798 0
-796 -799 0
-796 -800 0
-796 -801 0
-796 -802 0
-796 -803 0
-796 -804 0
-796 -805 0
-796 -806 0
-796 -807 0
-796 -808 0
-796 -809 0
-796 -810 0
-796 -811 0
-796 -812 0
-796 -813 0
-796 -814 0
-796 -815 0
-796 -816 0
-796 -817 0
-796 -818 0
-796 -819 0
-796 -820 0
-796 -821 0
-796 -822 0
-796 -823 0
-796 -824 0
-796 -825 0
-796 -826 0
-796 -827 0
-796 -828 0
-796 -829 0
-796 -830 0
-796 -831 0
-796 -832 0
-797 -798 0
-797 -799 0
-797 -800 0
-797 -801 0
-797 -802 0
-797 -803 0
-797 -804 0
-797 -805 0
-797 -806 0
-797 -807 0
-797 -808 0
-797 -809 0
-797 -810 0
-797 -811 0
-797 -812 0
-797 -813 0
-797 -814 0
-797 -815 0
-797 -816 0
-797 -817 0
-797 -818 0
-797 -819 0
-797 -820 0
-797 -821 0
-797 -822 0
-797 -823 0
-797 -824 0
-797 -825 0
-797 -826 0
-797 -827 0
-797 -828 0
-797 -829 0
-797 -830 0
-797 -831 0
-797 -832 0
-798 -799 0
-798 -800 0
-798 -801 0
-798 -802 0
-798 -803 0
-798 -804 0
-798 -805 0
-798 -806 0
-798 -807 0
-798 -808 0
-798 -809 0
-798 -810 0
-798 -811 0
-798 -812 0
-798 -813 0
-798 -814 0
-798 -815 0
-798 -816 0
-798 -817 0
-798 -818 0
-798 -819 0
-798 -820 0
-798 -821 0
-798 -822 0
-798 -823 0
-798 -824 0
-798 -825 0
-798 -826 0
-798 -827 0
-798 -828 0
-798 -829 0
-798 -830 0
-798 -831 0
-798 -832 0
-799 -800 0
-799 -801 0
-799 -802 0
-799 -803 0
-799 -804 0
-799 -805 0
-799 -806 0
-799 -807 0
-799 -808 0
-799 -809 0
-799 -810 0
-799 -811 0
-799 -812 0
-799 -813 0
-799 -814 0
-799 -815 0
-799 -816 0
-799 -817 0
-799 -818 0
-799 -819 0
-799 -820 0
-799 -821 0
-799 -822 0
-799 -823 0
-799 -824 0
-799 -825 0
-799 -826 0
-799 -827 0
-799 -828 0
-799 -829 0
-799 -830 0
-799 -831 0
-799 -832 0
-800 -801 0
-800 -802 0
-800 -803 0
-800 -804 0
-800 -805 0
-800 -806 0
-800 -807 0
-800 -808 0
-800 -809 0
-800 -810 0
-800 -811 0
-800 -812 0
-800 -813 0
-800 -814 0
-800 -815 0
-800 -816 0
-800 -817 0
-800 -818 0
-800 -819 0
-800 -820 0
-800 -821 0
-800 -822 0
-800 -823 0
-800 -824 0
-800 -825 0
-800 -826 0
-800 -827 0
-800 -828 0
-800 -829 0
-800 -830 0
-800 -831 0
-800 -832 0
-801 -802 0
-801 -803 0
-801 -804 0
-801 -805 0
-801 -806 0
-801 -807 0
-801 -808 0
-801 -809 0
-801 -810 0
-801 -811 0
-801 -812 0
-801 -813 0
-801 -814 0
-801 -815 0
-801 -816 0
-801 -817 0
-801 -818 0
-801 -819 0
-801 -820 0
-801 -821 0
-801 -822 0
-801 -823 0
-801 -824 0
-801 -825 0
-801 -826 0
-801 -827 0
-801 -828 0
-801 -829 0
-801 -830 0
-801 -831 0
-801 -832 0
-802 -803 0
-802 -804 0
-802 -805 0
-802 -806 0
-802 -807 0
-802 -808 0
-802 -809 0
-802 -810 0
-802 -811 0
-802 -812 0
-802 -813 0
-802 -814 0
-802 -815 0
-802 -816 0
-802 -817 0
-802 -818 0
-802 -819 0
-802 -820 0
-802 -821 0
-802 -822 0
-802 -823 0
-802 -824 0
-802 -825 0
-802 -826 0
-802 -827 0
-802 -828 0
-802 -829 0
-802 -830 0
-802 -831 0
-802 -832 0
-803 -804 0
-803 -805 0
-803 -806 0
-803 -807 0
-803 -808 0
-803 -809 0
-803 -810 0
-803 -811 0
-803 -812 0
-803 -813 0
-803 -814 0
-803 -815 0
-803 -816 0
-803 -817 0
-803 -818 0
-803 -819 0
-803 -820 0
-803 -821 0
-803 -822 0
-803 -823 0
-803 -824 0
-803 -825 0
-803 -826 0
-803 -827 0
-803 -828 0
-803 -829 0
-803 -830 0
-803 -831 0
-803 -832 0
-804 -805 0
-804 -806 0
-804 -807 0
-804 -808 0
-804 -809 0
-804 -810 0
-804 -811 0
-804 -812 0
-804 -813 0
-804 -814 0
-804 -815 0
-804 -816 0
-804 -817 0
-804 -818 0
-804 -819 0
-804 -820 0
-804 -821 0
-804 -822 0
-804 -823 0
-804 -824 0
-804 -825 0
-804 -826 0
-804 -827 0
-804 -828 0
-804 -829 0
-804 -830 0
-804 -831 0
-804 -832 0
-805 -806 0
-805 -807 0
-805 -808 0
-805 -809 0
-805 -810 0
-805 -811 0
-805 -812 0
-805 -813 0
-805 -814 0
-805 -815 0
-805 -816 0
-805 -817 0
-805 -818 0
-805 -819 0
-805 -820 0
-805 -821 0
-805 -822 0
-805 -823 0
-805 -824 0
-805 -825 0
-805 -826 0
-805 -827 0
-805 -828 0
-805 -829 0
-805 -830 0
-805 -831 0
-805 -832 0
-806 -807 0
-806 -808 0
-806 -809 0
-806 -810 0
-806 -811 0
-806 -812 0
-806 -813 0
-806 -814 0
-806 -815 0
-806 -816 0
-806 -817 0
-806 -818 0
-806 -819 0
-806 -820 0
-806 -821 0
-806 -822 0
-806 -823 0
-806 -824 0
-806 -825 0
-806 -826 0
-806 -827 0
-806 -828 0
-806 -829 0
-806 -830 0
-806 -831 0
-806 -832 0
-807 -808 0
-807 -809 0
-807 -810 0
-807 -811 0
-807 -812 0
-807 -813 0
-807 -814 0
-807 -815 0
-807 -816 0
-807 -817 0
-807 -818 0
-807 -819 0
-807 -820 0
-807 -821 0
-807 -822 0
-807 -823 0
-807 -824 0
-807 -825 0
-807 -826 0
-807 -827 0
-807 -828 0
-807 -829 0
-807 -830 0
-807 -831 0
-807 -832 0
-808 -809 0
-808 -810 0
-808 -811 0
-808 -812 0
-808 -813 0
-808 -814 0
-808 -815 0
-808 -816 0
-808 -817 0
-808 -818 0
-808 -819 0
-808 -820 0
-808 -821 0
-808 -822 0
-808 -823 0
-808 -824 0
-808 -825 0
-808 -826 0
-808 -827 0
-808 -828 0
-808 -829 0
-808 -830 0
-808 -831 0
-808 -832 0
-809 -810 0
-809 -811 0
-809 -812 0
-809 -813 0
-809 -814 0
-809 -815 0
-809 -816 0
-809 -817 0
-809 -818 0
-809 -819 0
-809 -820 0
-809 -821 0
-809 -822 0
-809 -823 0
-809 -824 0
-809 -825 0
-809 -826 0
-809 -827 0
-809 -828 0
-809 -829 0
-809 -830 0
-809 -831 0
-809 -832 0
-810 -811 0
-810 -812 0
-810 -813 0
-810 -814 0
-810 -815 0
-810 -816 0
-810 -817 0
-810 -818 0
-810 -819 0
-810 -820 0
-810 -821 0
-810 -822 0
-810 -823 0
-810 -824 0
-810 -825 0
-810 -826 0
-810 -827 0
-810 -828 0
-810 -829 0
-810 -830 0
-810 -831 0
-810 -832 0
-811 -812 0
-811 -813 0
-811 -814 0
-811 -815 0
-811 -816 0
-811 -817 0
-811 -818 0
-811 -819 0
-811 -820 0
-811 -821 0
-811 -822 0
-811 -823 0
-811 -824 0
-811 -825 0
-811 -826 0
-811 -827 0
-811 -828 0
-811 -829 0
-811 -830 0
-811 -831 0
-811 -832 0
-812 -813 0
-812 -814 0
-812 -815 0
-812 -816 0
-812 -817 0
-812 -818 0
-812 -819 0
-812 -820 0
-812 -821 0
-812 -822 0
-812 -823 0
-812 -824 0
-812 -825 0
-812 -826 0
-812 -827 0
-812 -828 0
-812 -829 0
-812 -830 0
-812 -831 0
-812 -832 0
-813 -814 0
-813 -815 0
-813 -816 0
-813 -817 0
-813 -818 0
-813 -819 0
-813 -820 0
-813 -821 0
-813 -822 0
-813 -823 0
-813 -824 0
-813 -825 0
-813 -826 0
-813 -827 0
-813 -828 0
-813 -829 0
-813 -830 0
-813 -831 0
-813 -832 0
-814 -815 0
-814 -816 0
-814 -817 0
-814 -818 0
-814 -819 0
-814 -820 0
-814 -821 0
-814 -822 0
-814 -823 0
-814 -824 0
-814 -825 0
-814 -826 0
-814 -827 0
-814 -828 0
-814 -829 0
-814 -830 0
-814 -831 0
-814 -832 0
-815 -816 0
-815 -817 0
-815 -818 0
-815 -819 0
-815 -820 0
-815 -821 0
-815 -822 0
-815 -823 0
-815 -824 0
-815 -825 0
-815 -826 0
-815 -827 0
-815 -828 0
-815 -829 0
-815 -830 0
-815 -831 0
-815 -832 0
-816 -817 0
-816 -818 0
-816 -819 0
-816 -820 0
-816 -821 0
-816 -822 0
-816 -823 0
-816 -824 0
-816 -825 0
-816 -826 0
-816 -827 0
-816 -828 0
-816 -829 0
-816 -830 0
-816 -831 0
-816 -832 0
-817 -818 0
-817 -819 0
-817 -820 0
-817 -821 0
-817 -822 0
-817 -823 0
-817 -824 0
-817 -825 0
-817 -826 0
-817 -827 0
-817 -828 0
-817 -829 0
-817 -830 0
-817 -831 0
-817 -832 0
-818 -819 0
-818 -820 0
-818 -821 0
-818 -822 0
-818 -823 0
-818 -824 0
-818 -825 0
-818 -826 0
-818 -827 0
-818 -828 0
-818 -829 0
-818 -830 0
-818 -831 0
-818 -832 0
-819 -820 0
-819 -821 0
-819 -822 0
-819 -823 0
-819 -824 0
-819 -825 0
-819 -826 0
-819 -827 0
-819 -828 0
-819 -829 0
-819 -830 0
-819 -831 0
-819 -832 0
-820 -821 0
-820 -822 0
-820 -823 0
-820 -824 0
-820 -825 0
-820 -826 0
-820 -827 0
-820 -828 0
-820 -829 0
-820 -830 0
-820 -831 0
-820 -832 0
-821 -822 0
-821 -823 0
-821 -824 0
-821 -825 0
-821 -826 0
-821 -827 0
-821 -828 0
-821 -829 0
-821 -830 0
-821 -831 0
-821 -832 0
-822 -823 0
-822 -824 0
-822 -825 0
-822 -826 0
-822 -827 0
-822 -828 0
-822 -829 0
-822 -830 0
-822 -831 0
-822 -832 0
-823 -824 0
-823 -825 0
-823 -826 0
-823 -827 0
-823 -828 0
-823 -829 0
-823 -830 0
-823 -831 0
-823 -832 0
-824 -825 0
-824 -826 0
-824 -827 0
-824 -828 0
-824 -829 0
-824 -830 0
-824 -831 0
-824 -832 0
-825 -826 0
-825 -827 0
-825 -828 0
-825 -829 0
-825 -830 0
-825 -831 0
-825 -832 0
-826 -827 0
-826 -828 0
-826 -829 0
-826 -830 0
-826 -831 0
-826 -832 0
-827 -828 0
-827 -829 0
-827 -830 0
-827 -831 0
-827 -832 0
-828 -829 0
-828 -830 0
-828 -831 0
-828 -832 0
-829 -830 0
-829 -831 0
-829 -832 0
-830 -831 0
-830 -832 0
-831 -832 0
749 750 751 752 753 754 755 756 757 758 759 760 761 762 763 764 765 766 767 768 769 770 771 772 -214 255 0
749 750 751 752 753 754 755 756 757 758 759 760 761 762 763 764 765 766 767 768 769 770 771 772 -215 256 0
749 750 751 752 753 754 755 756 757 758 759 760 761 762 763 764 765 766 767 768 769 770 771 772 -216 257 0
749 750 751 752 753 754 755 756 757 758 759 760 761 762 763 764 765 766 767 768 769 770 771 772 -217 258 0
749 750 751 752 753 754 755 756 757 758 759 760 761 762 763 764 765 766 767 768 769 770 771 772 -218 259 0
749 750 751 752 753 754 755 756 757 758 759 760 761 762 763 764 765 766 767 768 769 770 771 772 -219 260 0
749 750 751 752 753 754 755 756 757 758 759 760 761 762 763 764 765 766 767 768 769 770 771 772 -220 261 0
749 750 751 752 753 754 755 756 757 758 759 760 761 762 763 764 765 766 767 768 769 770 771 772 -221 262 0
749 750 751 752 753 754 755 756 757 758 759 760 761 762 763 764 765 766 767 768 769 770 771 772 -222 263 0
749 750 751 752 753 754 755 756 757 758 759 760 761 762 763 764 765 766 767 768 769 770 771 772 -223 264 0
773 774 775 776 777 778 779 780 781 782 783 784 785 786 787 788 789 790 791 792 793 794 795 796 -224 265 0
773 774 775 776 777 778 779 780 781 782 783 784 785 786 787 788 789 790 791 792 793 794 795 796 -225 266 0
773 774 775 776 777 778 779 780 781 782 783 784 785 786 787 788 789 790 791 792 793 794 795 796 -226 267 0
773 774 775 776 777 778 779 780 781 782 783 784 785 786 787 788 789 790 791 792 793 794 795 796 -227 268 0
773 774 775 776 777 778 779 780 781 782 783 784 785 786 787 788 789 790 791 792 793 794 795 796 -228 269 0
773 774 775 776 777 778 779 780 781 782 783 784 785 786 787 788 789 790 791 792 793 794 795 796 -229 270 0
773 774 775 776 777 778 779 780 781 782 783 784 785 786 787 788 789 790 791 792 793 794 795 796 -230 271 0
773 774 775 776 777 778 779 780 781 782 783 784 785 786 787 788 789 790 791 792 793 794 795 796 -231 272 0
773 774 775 776 777 778 779 780 781 782 783 784 785 786 787 788 789 790 791 792 793 794 795 796 -232 273 0
773 774 775 776 777 778 779 780 781 782 783 784 785 786 787 788 789 790 791 792 793 794 795 796 -233 274 0
797 798 799 800 801 802 803 804 805 806 807 808 809 810 811 812 813 814 815 816 -234 275 0
797 798 799 800 801 802 803 804 805 806 807 808 809 810 811 812 813 814 815 816 -235 276 0
797 798 799 800 801 802 803 804 805 806 807 808 809 810 811 812 813 814 815 816 -236 277 0
797 798 799 800 801 802 803 804 805 806 807 808 809 810 811 812 813 814 815 816 -237 278 0
797 798 799 800 801 802 803 804 805 806 807 808 809 810 811 812 813 814 815 816 -238 279 0
797 798 799 800 801 802 803 804 805 806 807 808 809 810 811 812 813 814 815 816 -239 280 0
797 798 799 800 801 802 803 804 805 806 807 808 809 810 811 812 813 814 815 816 -240 281 0
797 798 799 800 801 802 803 804 805 806 807 808 809 810 811 812 813 814 815 816 -241 282 0
797 798 799 800 801 802 803 804 805 806 807 808 809 810 811 812 813 814 815 816 -242 283 0
817 818 819 820 821 822 823 824 825 826 827 828 829 830 831 832 -243 284 0
817 818 819 820 821 822 823 824 825 826 827 828 829 830 831 832 -244 285 0
817 818 819 820 821 822 823 824 825 826 827 828 829 830 831 832 -245 286 0
817 818 819 820 821 822 823 824 825 826 827 828 829 830 831 832 -246 287 0
817 818 819 820 821 822 823 824 825 826 827 828 829 830 831 832 -247 288 0
817 818 819 820 821 822 823 824 825 826 827 828 829 830 831 832 -248 289 0
817 818 819 820 821 822 823 824 825 826 827 828 829 830 831 832 -249 290 0
817 818 819 820 821 822 823 824 825 826 827 828 829 830 831 832 -250 291 0
-833 292 0
-833 293 0
-833 -255 0
-833 11 0
-833 -265 -271 12 0
-833 -265 -272 302 0
-833 -265 -273 303 0
-834 292 0
-834 293 0
-834 -256 0
-834 296 0
-834 -266 -271 12 0
-834 -266 -272 302 0
-834 -266 -273 303 0
-835 292 0
-835 293 0
-835 -257 0
-835 297 0
-835 -267 -271 12 0
-835 -267 -272 302 0
-835 -267 -273 303 0
-836 292 0
-836 293 0
-836 -258 0
-836 298 0
-836 -268 -271 12 0
-836 -268 -272 302 0
-836 -268 -273 303 0
-837 292 0
-837 293 0
-837 -259 0
-837 299 0
-837 -269 -271 12 0
-837 -269 -272 302 0
-837 -269 -273 303 0
-838 292 0
-838 293 0
-838 -260 0
-838 300 0
-838 -270 -271 12 0
-838 -270 -272 302 0
-838 -270 -273 303 0
-839 292 0
-839 294 0
-839 -255 0
-839 11 0
-839 -275 -280 12 0
-839 -275 -281 302 0
-839 -275 -282 303 0
-840 292 0
-840 294 0
-840 -256 0
-840 296 0
-840 -275 -280 12 0
-840 -276 -280 12 0
-840 -275 -281 302 0
-840 -276 -281 302 0
-840 -275 -282 303 0
-840 -276 -282 303 0
-841 292 0
-841 294 0
-841 -257 0
-841 297 0
-841 -276 -280 12 0
-841 -277 -280 12 0
-841 -276 -281 302 0
-841 -277 -281 302 0
-841 -276 -282 303 0
-841 -277 -282 303 0
-842 292 0
-842 294 0
-842 -258 0
-842 298 0
-842 -277 -280 12 0
-842 -278 -280 12 0
-842 -277 -281 302 0
-842 -278 -281 302 0
-842 -277 -282 303 0
-842 -278 -282 303 0
-843 292 0
-843 294 0
-843 -259 0
-843 299 0
-843 -278 -280 12 0
-843 -279 -280 12 0
-843 -278 -281 302 0
-843 -279 -281 302 0
-843 -278 -282 303 0
-843 -279 -282 303 0
-844 292 0
-844 294 0
-844 -260 0
-844 300 0
-844 -279 -280 12 0
-844 -279 -281 302 0
-844 -279 -282 303 0
-845 292 0
-845 295 0
-845 -255 0
-845 11 0
-845 -284 -288 12 0
-845 -284 -289 302 0
-845 -284 -290 303 0
-846 292 0
-846 295 0
-846 -256 0
-846 296 0
-846 -284 -288 12 0
-846 -285 -288 12 0
-846 -284 -289 302 0
-846 -285 -289 302 0
-846 -284 -290 303 0
-846 -285 -290 303 0
-847 292 0
-847 295 0
-847 -257 0
-847 297 0
-847 -284 -288 12 0
-847 -285 -288 12 0
-847 -286 -288 12 0
-847 -284 -289 302 0
-847 -285 -289 302 0
-847 -286 -289 302 0
-847 -284 -290 303 0
-847 -285 -290 303 0
-847 -286 -290 303 0
-848 292 0
-848 295 0
-848 -258 0
-848 298 0
-848 -285 -288 12 0
-848 -286 -288 12 0
-848 -287 -288 12 0
-848 -285 -289 302 0
-848 -286 -289 302 0
-848 -287 -289 302 0
-848 -285 -290 303 0
-848 -286 -290 303 0
-848 -287 -290 303 0
-849 292 0
-849 295 0
-849 -259 0
-849 299 0
-849 -286 -288 12 0
-849 -287 -288 12 0
-849 -286 -289 302 0
-849 -287 -289 302 0
-849 -286 -290 303 0
-849 -287 -290 303 0
-850 292 0
-850 295 0
-850 -260 0
-850 300 0
-850 -287 -288 12 0
-850 -287 -289 302 0
-850 -287 -290 303 0
-851 292 0
-851 -255 0
-851 11 0
-851 301 0
-852 292 0
-852 -256 0
-852 296 0
-852 301 0
-853 292 0
-853 -257 0
-853 297 0
-853 301 0
-854 292 0
-854 -258 0
-854 298 0
-854 301 0
-855 292 0
-855 -259 0
-855 299 0
-855 301 0
-856 292 0
-856 -260 0
-856 300 0
-856 301 0
-857 293 0
-857 292 0
-857 -265 0
-857 304 0
-857 -255 -261 14 0
-857 -255 -262 310 0
-857 -255 -263 311 0
-858 293 0
-858 292 0
-858 -266 0
-858 13 0
-858 -256 -261 14 0
-858 -256 -262 310 0
-858 -256 -263 311 0
-859 293 0
-859 292 0
-859 -267 0
-859 305 0
-859 -257 -261 14 0
-859 -257 -262 310 0
-859 -257 -263 311 0
-860 293 0
-860 292 0
-860 -268 0
-860 306 0
-860 -258 -261 14 0
-860 -258 -262 310 0
-860 -258 -263 311 0
-861 293 0
-861 292 0
-861 -269 0
-861 307 0
-861 -259 -261 14 0
-861 -259 -262 310 0
-861 -259 -263 311 0
-862 293 0
-862 292 0
-862 -270 0
-862 308 0
-862 -260 -261 14 0
-862 -260 -262 310 0
-862 -260 -263 311 0
-863 293 0
-863 294 0
-863 -265 0
-863 304 0
-863 -275 -280 14 0
-863 -275 -281 310 0
-863 -275 -282 311 0
-864 293 0
-864 294 0
-864 -266 0
-864 13 0
-864 -275 -280 14 0
-864 -276 -280 14 0
-864 -275 -281 310 0
-864 -276 -281 310 0
-864 -275 -282 311 0
-864 -276 -282 311 0
-865 293 0
-865 294 0
-865 -267 0
-865 305 0
-865 -276 -280 14 0
-865 -277 -280 14 0
-865 -276 -281 310 0
-865 -277 -281 310 0
-865 -276 -282 311 0
-865 -277 -282 311 0
-866 293 0
-866 294 0
-866 -268 0
-866 306 0
-866 -277 -280 14 0
-866 -278 -280 14 0
-866 -277 -281 310 0
-866 -278 -281 310 0
-866 -277 -282 311 0
-866 -278 -282 311 0
-867 293 0
-867 294 0
-867 -269 0
-867 307 0
-867 -278 -280 14 0
-867 -279 -280 14 0
-867 -278 -281 310 0
-867 -279 -281 310 0
-867 -278 -282 311 0
-867 -279 -282 311 0
-868 293 0
-868 294 0
-868 -270 0
-868 308 0
-868 -279 -280 14 0
-868 -279 -281 310 0
-868 -279 -282 311 0
-869 293 0
-869 295 0
-869 -265 0
-869 304 0
-869 -284 -288 14 0
-869 -284 -289 310 0
-869 -284 -290 311 0
-870 293 0
-870 295 0
-870 -266 0
-870 13 0
-870 -284 -288 14 0
-870 -285 -288 14 0
-870 -284 -289 310 0
-870 -285 -289 310 0
-870 -284 -290 311 0
-870 -285 -290 311 0
-871 293 0
-871 295 0
-871 -267 0
-871 305 0
-871 -284 -288 14 0
-871 -285 -288 14 0
-871 -286 -288 14 0
-871 -284 -289 310 0
-871 -285 -289 310 0
-871 -286 -289 310 0
-871 -284 -290 311 0
-871 -285 -290 311 0
-871 -286 -290 311 0
-872 293 0
-872 295 0
-872 -268 0
-872 306 0
-872 -285 -288 14 0
-872 -286 -288 14 0
-872 -287 -288 14 0
-872 -285 -289 310 0
-872 -286 -289 310 0
-872 -287 -289 310 0
-872 -285 -290 311 0
-872 -286 -290 311 0
-872 -287 -290 311 0
-873 293 0
-873 295 0
-873 -269 0
-873 307 0
-873 -286 -288 14 0
-873 -287 -288 14 0
-873 -286 -289 310 0
-873 -287 -289 310 0
-873 -286 -290 311 0
-873 -287 -290 311 0
-874 293 0
-874 295 0
-874 -270 0
-874 308 0
-874 -287 -288 14 0
-874 -287 -289 310 0
-874 -287 -290 311 0
-875 293 0
-875 -265 0
-875 304 0
-875 309 0
-876 293 0
-876 -266 0
-876 13 0
-876 309 0
-877 293 0
-877 -267 0
-877 305 0
-877 309 0
-878 293 0
-878 -268 0
-878 306 0
-878 309 0
-879 293 0
-879 -269 0
-879 307 0
-879 309 0
-880 293 0
-880 -270 0
-880 308 0
-880 309 0
-881 294 0
-881 292 0
-881 -275 0
-881 9 0
-881 -255 -261 316 0
-881 -256 -261 316 0
-881 -255 -262 317 0
-881 -256 -262 317 0
-881 -255 -263 318 0
-881 -256 -263 318 0
-882 294 0
-882 292 0
-882 -276 0
-882 312 0
-882 -256 -261 316 0
-882 -257 -261 316 0
-882 -256 -262 317 0
-882 -257 -262 317 0
-882 -256 -263 318 0
-882 -257 -263 318 0
-883 294 0
-883 292 0
-883 -277 0
-883 313 0
-883 -257 -261 316 0
-883 -258 -261 316 0
-883 -257 -262 317 0
-883 -258 -262 317 0
-883 -257 -263 318 0
-883 -258 -263 318 0
-884 294 0
-884 292 0
-884 -278 0
-884 314 0
-884 -258 -261 316 0
-884 -259 -261 316 0
-884 -258 -262 317 0
-884 -259 -262 317 0
-884 -258 -263 318 0
-884 -259 -263 318 0
-885 294 0
-885 292 0
-885 -279 0
-885 315 0
-885 -259 -261 316 0
-885 -260 -261 316 0
-885 -259 -262 317 0
-885 -260 -262 317 0
-885 -259 -263 318 0
-885 -260 -263 318 0
-886 294 0
-886 293 0
-886 -275 0
-886 9 0
-886 -265 -271 316 0
-886 -266 -271 316 0
-886 -265 -272 317 0
-886 -266 -272 317 0
-886 -265 -273 318 0
-886 -266 -273 318 0
-887 294 0
-887 293 0
-887 -276 0
-887 312 0
-887 -266 -271 316 0
-887 -267 -271 316 0
-887 -266 -272 317 0
-887 -267 -272 317 0
-887 -266 -273 318 0
-887 -267 -273 318 0
-888 294 0
-888 293 0
-888 -277 0
-888 313 0
-888 -267 -271 316 0
-888 -268 -271 316 0
-888 -267 -272 317 0
-888 -268 -272 317 0
-888 -267 -273 318 0
-888 -268 -273 318 0
-889 294 0
-889 293 0
-889 -278 0
-889 314 0
-889 -268 -271 316 0
-889 -269 -271 316 0
-889 -268 -272 317 0
-889 -269 -272 317 0
-889 -268 -273 318 0
-889 -269 -273 318 0
-890 294 0
-890 293 0
-890 -279 0
-890 315 0
-890 -269 -271 316 0
-890 -270 -271 316 0
-890 -269 -272 317 0
-890 -270 -272 317 0
-890 -269 -273 318 0
-890 -270 -273 318 0
-891 294 0
-891 295 0
-891 -275 0
-891 9 0
-891 -284 -288 316 0
-891 -285 -288 316 0
-891 -284 -289 317 0
-891 -285 -289 317 0
-891 -284 -290 318 0
-891 -285 -290 318 0
-892 294 0
-892 295 0
-892 -276 0
-892 312 0
-892 -284 -288 316 0
-892 -285 -288 316 0
-892 -286 -288 316 0
-892 -284 -289 317 0
-892 -285 -289 317 0
-892 -286 -289 317 0
-892 -284 -290 318 0
-892 -285 -290 318 0
-892 -286 -290 318 0
-893 294 0
-893 295 0
-893 -277 0
-893 313 0
-893 -284 -288 316 0
-893 -285 -288 316 0
-893 -286 -288 316 0
-893 -287 -288 316 0
-893 -284 -289 317 0
-893 -285 -289 317 0
-893 -286 -289 317 0
-893 -287 -289 317 0
-893 -284 -290 318 0
-893 -285 -290 318 0
-893 -286 -290 318 0
-893 -287 -290 318 0
-894 294 0
-894 295 0
-894 -278 0
-894 314 0
-894 -285 -288 316 0
-894 -286 -288 316 0
-894 -287 -288 316 0
-894 -285 -289 317 0
-894 -286 -289 317 0
-894 -287 -289 317 0
-894 -285 -290 318 0
-894 -286 -290 318 0
-894 -287 -290 318 0
-895 294 0
-895 295 0
-895 -279 0
-895 315 0
-895 -286 -288 316 0
-895 -287 -288 316 0
-895 -286 -289 317 0
-895 -287 -289 317 0
-895 -286 -290 318 0
-895 -287 -290 318 0
-896 294 0
-896 -275 0
-896 9 0
-896 10 0
-897 294 0
-897 -276 0
-897 312 0
-897 10 0
-898 294 0
-898 -277 0
-898 313 0
-898 10 0
-899 294 0
-899 -278 0
-899 314 0
-899 10 0
-900 294 0
-900 -279 0
-900 315 0
-900 10 0
-901 295 0
-901 292 0
-901 -284 0
-901 319 0
-901 -255 -261 322 0
-901 -256 -261 322 0
-901 -257 -261 322 0
-901 -255 -262 323 0
-901 -256 -262 323 0
-901 -257 -262 323 0
-901 -255 -263 324 0
-901 -256 -263 324 0
-901 -257 -263 324 0
-902 295 0
-902 292 0
-902 -285 0
-902 320 0
-902 -256 -261 322 0
-902 -257 -261 322 0
-902 -258 -261 322 0
-902 -256 -262 323 0
-902 -257 -262 323 0
-902 -258 -262 323 0
-902 -256 -263 324 0
-902 -257 -263 324 0
-902 -258 -263 324 0
-903 295 0
-903 292 0
-903 -286 0
-903 321 0
-903 -257 -261 322 0
-903 -258 -261 322 0
-903 -259 -261 322 0
-903 -257 -262 323 0
-903 -258 -262 323 0
-903 -259 -262 323 0
-903 -257 -263 324 0
-903 -258 -263 324 0
-903 -259 -263 324 0
-904 295 0
-904 292 0
-904 -287 0
-904 15 0
-904 -258 -261 322 0
-904 -259 -261 322 0
-904 -260 -261 322 0
-904 -258 -262 323 0
-904 -259 -262 323 0
-904 -260 -262 323 0
-904 -258 -263 324 0
-904 -259 -263 324 0
-904 -260 -263 324 0
-905 295 0
-905 293 0
-905 -284 0
-905 319 0
-905 -265 -271 322 0
-905 -266 -271 322 0
-905 -267 -271 322 0
-905 -265 -272 323 0
-905 -266 -272 323 0
-905 -267 -272 323 0
-905 -265 -273 324 0
-905 -266 -273 324 0
-905 -267 -273 324 0
-906 295 0
-906 293 0
-906 -285 0
-906 320 0
-906 -266 -271 322 0
-906 -267 -271 322 0
-906 -268 -271 322 0
-906 -266 -272 323 0
-906 -267 -272 323 0
-906 -268 -272 323 0
-906 -266 -273 324 0
-906 -267 -273 324 0
-906 -268 -273 324 0
-907 295 0
-907 293 0
-907 -286 0
-907 321 0
-907 -267 -271 322 0
-907 -268 -271 322 0
-907 -269 -271 322 0
-907 -267 -272 323 0
-907 -268 -272 323 0
-907 -269 -272 323 0
-907 -267 -273 324 0
-907 -268 -273 324 0
-907 -269 -273 324 0
-908 295 0
-908 293 0
-908 -287 0
-908 15 0
-908 -268 -271 322 0
-908 -269 -271 322 0
-908 -270 -271 322 0
-908 -268 -272 323 0
-908 -269 -272 323 0
-908 -270 -272 323 0
-908 -268 -273 324 0
-908 -269 -273 324 0
-908 -270 -273 324 0
-909 295 0
-909 294 0
-909 -284 0
-909 319 0
-909 -275 -280 322 0
-909 -276 -280 322 0
-909 -277 -280 322 0
-909 -275 -281 323 0
-909 -276 -281 323 0
-909 -277 -281 323 0
-909 -275 -282 324 0
-909 -276 -282 324 0
-909 -277 -282 324 0
-910 295 0
-910 294 0
-910 -285 0
-910 320 0
-910 -275 -280 322 0
-910 -276 -280 322 0
-910 -277 -280 322 0
-910 -278 -280 322 0
-910 -275 -281 323 0
-910 -276 -281 323 0
-910 -277 -281 323 0
-910 -278 -281 323 0
-910 -275 -282 324 0
-910 -276 -282 324 0
-910 -277 -282 324 0
-910 -278 -282 324 0
-911 295 0
-911 294 0
-911 -286 0
-911 321 0
-911 -276 -280 322 0
-911 -277 -280 322 0
-911 -278 -280 322 0
-911 -279 -280 322 0
-911 -276 -281 323 0
-911 -277 -281 323 0
-911 -278 -281 323 0
-911 -279 -281 323 0
-911 -276 -282 324 0
-911 -277 -282 324 0
-911 -278 -282 324 0
-911 -279 -282 324 0
-912 295 0
-912 294 0
-912 -287 0
-912 15 0
-912 -277 -280 322 0
-912 -278 -280 322 0
-912 -279 -280 322 0
-912 -277 -281 323 0
-912 -278 -281 323 0
-912 -279 -281 323 0
-912 -277 -282 324 0
-912 -278 -282 324 0
-912 -279 -282 324 0
-913 295 0
-913 -284 0
-913 319 0
-913 16 0
-914 295 0
-914 -285 0
-914 320 0
-914 16 0
-915 295 0
-915 -286 0
-915 321 0
-915 16 0
-916 295 0
-916 -287 0
-916 15 0
-916 16 0
833 834 835 836 837 838 839 840 841 842 843 844 845 846 847 848 849 850 851 852 853 854 855 856 857 858 859 860 861 862 863 864 865 866 867 868 869 870 871 872 873 874 875 876 877 878 879 880 881 882 883 884 885 886 887 888 889 890 891 892 893 894 895 896 897 898 899 900 901 902 903 904 905 906 907 908 909 910 911 912 913 914 915 916 0
-833 -834 0
-833 -835 0
-833 -836 0
-833 -837 0
-833 -838 0
-833 -839 0
-833 -840 0
-833 -841 0
-833 -842 0
-833 -843 0
-833 -844 0
-833 -845 0
-833 -846 0
-833 -847 0
-833 -848 0
-833 -849 0
-833 -850 0
-833 -851 0
-833 -852 0
-833 -853 0
-833 -854 0
-833 -855 0
-833 -856 0
-833 -857 0
-833 -858 0
-833 -859 0
-833 -860 0
-833 -861 0
-833 -862 0
-833 -863 0
-833 -864 0
-833 -865 0
-833 -866 0
-833 -867 0
-833 -868 0
-833 -869 0
-833 -870 0
-833 -871 0
-833 -872 0
-833 -873 0
-833 -874 0
-833 -875 0
-833 -876 0
-833 -877 0
-833 -878 0
-833 -879 0
-833 -880 0
-833 -881 0
-833 -882 0
-833 -883 0
-833 -884 0
-833 -885 0
-833 -886 0
-833 -887 0
-833 -888 0
-833 -889 0
-833 -890 0
-833 -891 0
-833 -892 0
-833 -893 0
-833 -894 0
-833 -895 0
-833 -896 0
-833 -897 0
-833 -898 0
-833 -899 0
-833 -900 0
-833 -901 0
-833 -902 0
-833 -903 0
-833 -904 0
-833 -905 0
-833 -906 0
-833 -907 0
-833 -908 0
-833 -909 0
-833 -910 0
-833 -911 0
-833 -912 0
-833 -913 0
-833 -914 0
-833 -915 0
-833 -916 0
-834 -835 0
-834 -836 0
-834 -837 0
-834 -838 0
-834 -839 0
-834 -840 0
-834 -841 0
-834 -842 0
-834 -843 0
-834 -844 0
-834 -845 0
-834 -846 0
-834 -847 0
-834 -848 0
-834 -849 0
-834 -850 0
-834 -851 0
-834 -852 0
-834 -853 0
-834 -854 0
-834 -855 0
-834 -856 0
-834 -857 0
-834 -858 0
-834 -859 0
-834 -860 0
-834 -861 0
-834 -862 0
-834 -863 0
-834 -864 0
-834 -865 0
-834 -866 0
-834 -867 0
-834 -868 0
-834 -869 0
-834 -870 0
-834 -871 0
-834 -872 0
-834 -873 0
-834 -874 0
-834 -875 0
-834 -876 0
-834 -877 0
-834 -878 0
-834 -879 0
-834 -880 0
-834 -881 0
-834 -882 0
-834 -883 0
-834 -884 0
-834 -885 0
-834 -886 0
-834 -887 0
-834 -888 0
-834 -889 0
-834 -890 0
-834 -891 0
-834 -892 0
-834 -893 0
-834 -894 0
-834 -895 0
-834 -896 0
-834 -897 0
-834 -898 0
-834 -899 0
-834 -900 0
-834 -901 0
-834 -902 0
-834 -903 0
-834 -904 0
-834 -905 0
-834 -906 0
-834 -907 0
-834 -908 0
-834 -909 0
-834 -910 0
-834 -911 0
-834 -912 0
-834 -913 0
-834 -914 0
-834 -915 0
-834 -916 0
-835 -836 0
-835 -837 0
-835 -838 0
-835 -839 0
-835 -840 0
-835 -841 0
-835 -842 0
-835 -843 0
-835 -844 0
-835 -845 0
-835 -846 0
-835 -847 0
-835 -848 0
-835 -849 0
-835 -850 0
-835 -851 0
-835 -852 0
-835 -853 0
-835 -854 0
-835 -855 0
-835 -856 0
-835 -857 0
-835 -858 0
-835 -859 0
-835 -860 0
-835 -861 0
-835 -862 0
-835 -863 0
-835 -864 0
-835 -865 0
-835 -866 0
-835 -867 0
-835 -868 0
-835 -869 0
-835 -870 0
-835 -871 0
-835 -872 0
-835 -873 0
-835 -874 0
-835 -875 0
-835 -876 0
-835 -877 0
-835 -878 0
-835 -879 0
-835 -880 0
-835 -881 0
-835 -882 0
-835 -883 0
-835 -884 0
-835 -885 0
-835 -886 0
-835 -887 0
-835 -888 0
-835 -889 0
-835 -890 0
-835 -891 0
-835 -892 0
-835 -893 0
-835 -894 0
-835 -895 0
-835 -896 0
-835 -897 0
-835 -898 0
-835 -899 0
-835 -900 0
-835 -901 0
-835 -902 0
-835 -903 0
-835 -904 0
-835 -905 0
-835 -906 0
-835 -907 0
-835 -908 0
-835 -909 0
-835 -910 0
-835 -911 0
-835 -912 0
-835 -913 0
-835 -914 0
-835 -915 0
-835 -916 0
-836 -837 0
-836 -838 0
-836 -839 0
-836 -840 0
-836 -841 0
-836 -842 0
-836 -843 0
-836 -844 0
-836 -845 0
-836 -846 0
-836 -847 0
-836 -848 0
-836 -849 0
-836 -850 0
-836 -851 0
-836 -852 0
-836 -853 0
-836 -854 0
-836 -855 0
-836 -856 0
-836 -857 0
-836 -858 0
-836 -859 0
-836 -860 0
-836 -861 0
-836 -862 0
-836 -863 0
-836 -864 0
-836 -865 0
-836 -866 0
-836 -867 0
-836 -868 0
-836 -869 0
-836 -870 0
-836 -871 0
-836 -872 0
-836 -873 0
-836 -874 0
-836 -875 0
-836 -876 0
-836 -877 0
-836 -878 0
-836 -879 0
-836 -880 0
-836 -881 0
-836 -882 0
-836 -883 0
-836 -884 0
-836 -885 0
-836 -886 0
-836 -887 0
-836 -888 0
-836 -889 0
-836 -890 0
-836 -891 0
-836 -892 0
-836 -893 0
-836 -894 0
-836 -895 0
-836 -896 0
-836 -897 0
-836 -898 0
-836 -899 0
-836 -900 0
-836 -901 0
-836 -902 0
-836 -903 0
-836 -904 0
-836 -905 0
-836 -906 0
-836 -907 0
-836 -908 0
-836 -909 0
-836 -910 0
-836 -911 0
-836 -912 0
-836 -913 0
-836 -914 0
-836 -915 0
-836 -916 0
-837 -838 0
-837 -839 0
-837 -840 0
-837 -841 0
-837 -842 0
-837 -843 0
-837 -844 0
-837 -845 0
-837 -846 0
-837 -847 0
-837 -848 0
-837 -849 0
-837 -850 0
-837 -851 0
-837 -852 0
-837 -853 0
-837 -854 0
-837 -855 0
-837 -856 0
-837 -857 0
-837 -858 0
-837 -859 0
-837 -860 0
-837 -861 0
-837 -862 0
-837 -863 0
-837 -864 0
-837 -865 0
-837 -866 0
-837 -867 0
-837 -868 0
-837 -869 0
-837 -870 0
-837 -871 0
-837 -872 0
-837 -873 0
-837 -874 0
-837 -875 0
-837 -876 0
-837 -877 0
-837 -878 0
-837 -879 0
-837 -880 0
-837 -881 0
-837 -882 0
-837 -883 0
-837 -884 0
-837 -885 0
-837 -886 0
-837 -887 0
-837 -888 0
-837 -889 0
-837 -890 0
-837 -891 0
-837 -892 0
-837 -893 0
-837 -894 0
-837 -895 0
-837 -896 0
-837 -897 0
-837 -898 0
-837 -899 0
-837 -900 0
-837 -901 0
-837 -902 0
-837 -903 0
-837 -904 0
-837 -905 0
-837 -906 0
-837 -907 0
-837 -908 0
-837 -909 0
-837 -910 0
-837 -911 0
-837 -912 0
-837 -913 0
-837 -914 0
-837 -915 0
-837 -916 0
-838 -839 0
-838 -840 0
-838 -841 0
-838 -842 0
-838 -843 0
-838 -844 0
-838 -845 0
-838 -846 0
-838 -847 0
-838 -848 0
-838 -849 0
-838 -850 0
-838 -851 0
-838 -852 0
-838 -853 0
-838 -854 0
-838 -855 0
-838 -856 0
-838 -857 0
-838 -858 0
-838 -859 0
-838 -860 0
-838 -861 0
-838 -862 0
-838 -863 0
-838 -864 0
-838 -865 0
-838 -866 0
-838 -867 0
-838 -868 0
-838 -869 0
-838 -870 0
-838 -871 0
-838 -872 0
-838 -873 0
-838 -874 0
-838 -875 0
-838 -876 0
-838 -877 0
-838 -878 0
-838 -879 0
-838 -880 0
-838 -881 0
-838 -882 0
-838 -883 0
-838 -884 0
-838 -885 0
-838 -886 0
-838 -887 0
-838 -888 0
-838 -889 0
-838 -890 0
-838 -891 0
-838 -892 0
-838 -893 0
-838 -894 0
-838 -895 0
-838 -896 0
-838 -897 0
-838 -898 0
-838 -899 0
-838 -900 0
-838 -901 0
-838 -902 0
-838 -903 0
-838 -904 0
-838 -905 0
-838 -906 0
-838 -907 0
-838 -908 0
-838 -909 0
-838 -910 0
-838 -911 0
-838 -912 0
-838 -913 0
-838 -914 0
-838 -915 0
-838 -916 0
-839 -840 0
-839 -841 0
-839 -842 0
-839 -843 0
-839 -844 0
-839 -845 0
-839 -846 0
-839 -847 0
-839 -848 0
-839 -849 0
-839 -850 0
-839 -851 0
-839 -852 0
-839 -853 0
-839 -854 0
-839 -855 0
-839 -856 0
-839 -857 0
-839 -858 0
-839 -859 0
-839 -860 0
-839 -861 0
-839 -862 0
-839 -863 0
-839 -864 0
-839 -865 0
-839 -866 0
-839 -867 0
-839 -868 0
-839 -869 0
-839 -870 0
-839 -871 0
-839 -872 0
-839 -873 0
-839 -874 0
-839 -875 0
-839 -876 0
-839 -877 0
-839 -878 0
-839 -879 0
-839 -880 0
-839 -881 0
-839 -882 0
-839 -883 0
-839 -884 0
-839 -885 0
-839 -886 0
-839 -887 0
-839 -888 0
-839 -889 0
-839 -890 0
-839 -891 0
-839 -892 0
-839 -893 0
-839 -894 0
-839 -895 0
-839 -896 0
-839 -897 0
-839 -898 0
-839 -899 0
-839 -900 0
-839 -901 0
-839 -902 0
-839 -903 0
-839 -904 0
-839 -905 0
-839 -906 0
-839 -907 0
-839 -908 0
-839 -909 0
-839 -910 0
-839 -911 0
-839 -912 0
-839 -913 0
-839 -914 0
-839 -915 0
-839 -916 0
-840 -841 0
-840 -842 0
-840 -843 0
-840 -844 0
-840 -845 0
-840 -846 0
-840 -847 0
-840 -848 0
-840 -849 0
-840 -850 0
-840 -851 0
-840 -852 0
-840 -853 0
-840 -854 0
-840 -855 0
-840 -856 0
-840 -857 0
-840 -858 0
-840 -859 0
-840 -860 0
-840 -861 0
-840 -862 0
-840 -863 0
-840 -864 0
-840 -865 0
-840 -866 0
-840 -867 0
-840 -868 0
-840 -869 0
-840 -870 0
-840 -871 0
-840 -872 0
-840 -873 0
-840 -874 0
-840 -875 0
-840 -876 0
-840 -877 0
-840 -878 0
-840 -879 0
-840 -880 0
-840 -881 0
-840 -882 0
-840 -883 0
-840 -884 0
-840 -885 0
-840 -886 0
-840 -887 0
-840 -888 0
-840 -889 0
-840 -890 0
-840 -891 0
-840 -892 0
-840 -893 0
-840 -894 0
-840 -895 0
-840 -896 0
-840 -897 0
-840 -898 0
-840 -899 0
-840 -900 0
-840 -901 0
-840 -902 0
-840 -903 0
-840 -904 0
-840 -905 0
-840 -906 0
-840 -907 0
-840 -908 0
-840 -909 0
-840 -910 0
-840 -911 0
-840 -912 0
-840 -913 0
-840 -914 0
-840 -915 0
-840 -916 0
-841 -842 0
-841 -843 0
-841 -844 0
-841 -845 0
-841 -846 0
-841 -847 0
-841 -848 0
-841 -849 0
-841 -850 0
-841 -851 0
-841 -852 0
-841 -853 0
-841 -854 0
-841 -855 0
-841 -856 0
-841 -857 0
-841 -858 0
-841 -859 0
-841 -860 0
-841 -861 0
-841 -862 0
-841 -863 0
-841 -864 0
-841 -865 0
-841 -866 0
-841 -867 0
-841 -868 0
-841 -869 0
-841 -870 0
-841 -871 0
-841 -872 0
-841 -873 0
-841 -874 0
-841 -875 0
-841 -876 0
-841 -877 0
-841 -878 0
-841 -879 0
-841 -880 0
-841 -881 0
-841 -882 0
-841 -883 0
-841 -884 0
-841 -885 0
-841 -886 0
-841 -887 0
-841 -888 0
-841 -889 0
-841 -890 0
-841 -891 0
-841 -892 0
-841 -893 0
-841 -894 0
-841 -895 0
-841 -896 0
-841 -897 0
-841 -898 0
-841 -899 0
-841 -900 0
-841 -901 0
-841 -902 0
-841 -903 0
-841 -904 0
-841 -905 0
-841 -906 0
-841 -907 0
-841 -908 0
-841 -909 0
-841 -910 0
-841 -911 0
-841 -912 0
-841 -913 0
-841 -914 0
-841 -915 0
-841 -916 0
-842 -843 0
-842 -844 0
-842 -845 0
-842 -846 0
-842 -847 0
-842 -848 0
-842 -849 0
-842 -850 0
-842 -851 0
-842 -852 0
-842 -853 0
-842 -854 0
-842 -855 0
-842 -856 0
-842 -857 0
-842 -858 0
-842 -859 0
-842 -860 0
-842 -861 0
-842 -862 0
-842 -863 0
-842 -864 0
-842 -865 0
-842 -866 0
-842 -867 0
-842 -868 0
-842 -869 0
-842 -870 0
-842 -871 0
-842 -872 0
-842 -873 0
-842 -874 0
-842 -875 0
-842 -876 0
-842 -877 0
-842 -878 0
-842 -879 0
-842 -880 0
-842 -881 0
-842 -882 0
-842 -883 0
-842 -884 0
-842 -885 0
-842 -886 0
-842 -887 0
-842 -888 0
-842 -889 0
-842 -890 0
-842 -891 0
-842 -892 0
-842 -893 0
-842 -894 0
-842 -895 0
-842 -896 0
-842 -897 0
-842 -898 0
-842 -899 0
-842 -900 0
-842 -901 0
-842 -902 0
-842 -903 0
-842 -904 0
-842 -905 0
-842 -906 0
-842 -907 0
-842 -908 0
-842 -909 0
-842 -910 0
-842 -911 0
-842 -912 0
-842 -913 0
-842 -914 0
-842 -915 0
-842 -916 0
-843 -844 0
-843 -845 0
-843 -846 0
-843 -847 0
-843 -848 0
-843 -849 0
-843 -850 0
-843 -851 0
-843 -852 0
-843 -853 0
-843 -854 0
-843 -855 0
-843 -856 0
-843 -857 0
-843 -858 0
-843 -859 0
-843 -860 0
-843 -861 0
-843 -862 0
-843 -863 0
-843 -864 0
-843 -865 0
-843 -866 0
-843 -867 0
-843 -868 0
-843 -869 0
-843 -870 0
-843 -871 0
-843 -872 0
-843 -873 0
-843 -874 0
-843 -875 0
-843 -876 0
-843 -877 0
-843 -878 0
-843 -879 0
-843 -880 0
-843 -881 0
-843 -882 0
-843 -883 0
-843 -884 0
-843 -885 0
-843 -886 0
-843 -887 0
-843 -888 0
-843 -889 0
-843 -890 0
-843 -891 0
-843 -892 0
-843 -893 0
-843 -894 0
-843 -895 0
-843 -896 0
-843 -897 0
-843 -898 0
-843 -899 0
-843 -900 0
-843 -901 0
-843 -902 0
-843 -903 0
-843 -904 0
-843 -905 0
-843 -906 0
-843 -907 0
-843 -908 0
-843 -909 0
-843 -910 0
-843 -911 0
-843 -912 0
-843 -913 0
-843 -914 0
-843 -915 0
-843 -916 0
-844 -845 0
-844 -846 0
-844 -847 0
-844 -848 0
-844 -849 0
-844 -850 0
-844 -851 0
-844 -852 0
-844 -853 0
-844 -854 0
-844 -855 0
-844 -856 0
-844 -857 0
-844 -858 0
-844 -859 0
-844 -860 0
-844 -861 0
-844 -862 0
-844 -863 0
-844 -864 0
-844 -865 0
-844 -866 0
-844 -867 0
-844 -868 0
-844 -869 0
-844 -870 0
-844 -871 0
-844 -872 0
-844 -873 0
-844 -874 0
-844 -875 0
-844 -876 0
-844 -877 0
-844 -878 0
-844 -879 0
-844 -880 0
-844 -881 0
-844 -882 0
-844 -883 0
-844 -884 0
-844 -885 0
-844 -886 0
-844 -887 0
-844 -888 0
-844 -889 0
-844 -890 0
-844 -891 0
-844 -892 0
-844 -893 0
-844 -894 0
-844 -895 0
-844 -896 0
-844 -897 0
-844 -898 0
-844 -899 0
-844 -900 0
-844 -901 0
-844 -902 0
-844 -903 0
-844 -904 0
-844 -905 0
-844 -906 0
-844 -907 0
-844 -908 0
-844 -909 0
-844 -910 0
-844 -911 0
-844 -912 0
-844 -913 0
-844 -914 0
-844 -915 0
-844 -916 0
-845 -846 0
-845 -847 0
-845 -848 0
-845 -849 0
-845 -850 0
-845 -851 0
-845 -852 0
-845 -853 0
-845 -854 0
-845 -855 0
-845 -856 0
-845 -857 0
-845 -858 0
-845 -859 0
-845 -860 0
-845 -861 0
-845 -862 0
-845 -863 0
-845 -864 0
-845 -865 0
-845 -866 0
-845 -867 0
-845 -868 0
-845 -869 0
-845 -870 0
-845 -871 0
-845 -872 0
-845 -873 0
-845 -874 0
-845 -875 0
-845 -876 0
-845 -877 0
-845 -878 0
-845 -879 0
-845 -880 0
-845 -881 0
-845 -882 0
-845 -883 0
-845 -884 0
-845 -885 0
-845 -886 0
-845 -887 0
-845 -888 0
-845 -889 0
-845 -890 0
-845 -891 0
-845 -892 0
-845 -893 0
-845 -894 0
-845 -895 0
-845 -896 0
-845 -897 0
-845 -898 0
-845 -899 0
-845 -900 0
-845 -901 0
-845 -902 0
-845 -903 0
-845 -904 0
-845 -905 0
-845 -906 0
-845 -907 0
-845 -908 0
-845 -909 0
-845 -910 0
-845 -911 0
-845 -912 0
-845 -913 0
-845 -914 0
-845 -915 0
-845 -916 0
-846 -847 0
-846 -848 0
-846 -849 0
-846 -850 0
-846 -851 0
-846 -852 0
-846 -853 0
-846 -854 0
-846 -855 0
-846 -856 0
-846 -857 0
-846 -858 0
-846 -859 0
-846 -860 0
-846 -861 0
-846 -862 0
-846 -863 0
-846 -864 0
-846 -865 0
-846 -866 0
-846 -867 0
-846 -868 0
-846 -869 0
-846 -870 0
-846 -871 0
-846 -872 0
-846 -873 0
-846 -874 0
-846 -875 0
-846 -876 0
-846 -877 0
-846 -878 0
-846 -879 0
-846 -880 0
-846 -881 0
-846 -882 0
-846 -883 0
-846 -884 0
-846 -885 0
-846 -886 0
-846 -887 0
-846 -888 0
-846 -889 0
-846 -890 0
-846 -891 0
-846 -892 0
-846 -893 0
-846 -894 0
-846 -895 0
-846 -896 0
-846 -897 0
-846 -898 0
-846 -899 0
-846 -900 0
-846 -901 0
-846 -902 0
-846 -903 0
-846 -904 0
-846 -905 0
-846 -906 0
-846 -907 0
-846 -908 0
-846 -909 0
-846 -910 0
-846 -911 0
-846 -912 0
-846 -913 0
-846 -914 0
-846 -915 0
-846 -916 0
-847 -848 0
-847 -849 0
-847 -850 0
-847 -851 0
-847 -852 0
-847 -853 0
-847 -854 0
-847 -855 0
-847 -856 0
-847 -857 0
-847 -858 0
-847 -859 0
-847 -860 0
-847 -861 0
-847 -862 0
-847 -863 0
-847 -864 0
-847 -865 0
-847 -866 0
-847 -867 0
-847 -868 0
-847 -869 0
-847 -870 0
-847 -871 0
-847 -872 0
-847 -873 0
-847 -874 0
-847 -875 0
-847 -876 0
-847 -877 0
-847 -878 0
-847 -879 0
-847 -880 0
-847 -881 0
-847 -882 0
-847 -883 0
-847 -884 0
-847 -885 0
-847 -886 0
-847 -887 0
-847 -888 0
-847 -889 0
-847 -890 0
-847 -891 0
-847 -892 0
-847 -893 0
-847 -894 0
-847 -895 0
-847 -896 0
-847 -897 0
-847 -898 0
-847 -899 0
-847 -900 0
-847 -901 0
-847 -902 0
-847 -903 0
-847 -904 0
-847 -905 0
-847 -906 0
-847 -907 0
-847 -908 0
-847 -909 0
-847 -910 0
-847 -911 0
-847 -912 0
-847 -913 0
-847 -914 0
-847 -915 0
-847 -916 0
-848 -849 0
-848 -850 0
-848 -851 0
-848 -852 0
-848 -853 0
-848 -854 0
-848 -855 0
-848 -856 0
-848 -857 0
-848 -858 0
-848 -859 0
-848 -860 0
-848 -861 0
-848 -862 0
-848 -863 0
-848 -864 0
-848 -865 0
-848 -866 0
-848 -867 0
-848 -868 0
-848 -869 0
-848 -870 0
-848 -871 0
-848 -872 0
-848 -873 0
-848 -874 0
-848 -875 0
-848 -876 0
-848 -877 0
-848 -878 0
-848 -879 0
-848 -880 0
-848 -881 0
-848 -882 0
-848 -883 0
-848 -884 0
-848 -885 0
-848 -886 0
-848 -887 0
-848 -888 0
-848 -889 0
-848 -890 0
-848 -891 0
-848 -892 0
-848 -893 0
-848 -894 0
-848 -895 0
-848 -896 0
-848 -897 0
-848 -898 0
-848 -899 0
-848 -900 0
-848 -901 0
-848 -902 0
-848 -903 0
-848 -904 0
-848 -905 0
-848 -906 0
-848 -907 0
-848 -908 0
-848 -909 0
-848 -910 0
-848 -911 0
-848 -912 0
-848 -913 0
-848 -914 0
-848 -915 0
-848 -916 0
-849 -850 0
-849 -851 0
-849 -852 0
-849 -853 0
-849 -854 0
-849 -855 0
-849 -856 0
-849 -857 0
-849 -858 0
-849 -859 0
-849 -860 0
-849 -861 0
-849 -862 0
-849 -863 0
-849 -864 0
-849 -865 0
-849 -866 0
-849 -867 0
-849 -868 0
-849 -869 0
-849 -870 0
-849 -871 0
-849 -872 0
-849 -873 0
-849 -874 0
-849 -875 0
-849 -876 0
-849 -877 0
-849 -878 0
-849 -879 0
-849 -880 0
-849 -881 0
-849 -882 0
-849 -883 0
-849 -884 0
-849 -885 0
-849 -886 0
-849 -887 0
-849 -888 0
-849 -889 0
-849 -890 0
-849 -891 0
-849 -892 0
-849 -893 0
-849 -894 0
-849 -895 0
-849 -896 0
-849 -897 0
-849 -898 0
-849 -899 0
-849 -900 0
-849 -901 0
-849 -902 0
-849 -903 0
-849 -904 0
-849 -905 0
-849 -906 0
-849 -907 0
-849 -908 0
-849 -909 0
-849 -910 0
-849 -911 0
-849 -912 0
-849 -913 0
-849 -914 0
-849 -915 0
-849 -916 0
-850 -851 0
-850 -852 0
-850 -853 0
-850 -854 0
-850 -855 0
-850 -856 0
-850 -857 0
-850 -858 0
-850 -859 0
-850 -860 0
-850 -861 0
-850 -862 0
-850 -863 0
-850 -864 0
-850 -865 0
-850 -866 0
-850 -867 0
-850 -868 0
-850 -869 0
-850 -870 0
-850 -871 0
-850 -872 0
-850 -873 0
-850 -874 0
-850 -875 0
-850 -876 0
-850 -877 0
-850 -878 0
-850 -879 0
-850 -880 0
-850 -881 0
-850 -882 0
-850 -883 0
-850 -884 0
-850 -885 0
-850 -886 0
-850 -887 0
-850 -888 0
-850 -889 0
-850 -890 0
-850 -891 0
-850 -892 0
-850 -893 0
-850 -894 0
-850 -895 0
-850 -896 0
-850 -897 0
-850 -898 0
-850 -899 0
-850 -900 0
-850 -901 0
-850 -902 0
-850 -903 0
-850 -904 0
-850 -905 0
-850 -906 0
-850 -907 0
-850 -908 0
-850 -909 0
-850 -910 0
-850 -911 0
-850 -912 0
-850 -913 0
-850 -914 0
-850 -915 0
-850 -916 0
-851 -852 0
-851 -853 0
-851 -854 0
-851 -855 0
-851 -856 0
-851 -857 0
-851 -858 0
-851 -859 0
-851 -860 0
-851 -861 0
-851 -862 0
-851 -863 0
-851 -864 0
-851 -865 0
-851 -866 0
-851 -867 0
-851 -868 0
-851 -869 0
-851 -870 0
-851 -871 0
-851 -872 0
-851 -873 0
-851 -874 0
-851 -875 0
-851 -876 0
-851 -877 0
-851 -878 0
-851 -879 0
-851 -880 0
-851 -881 0
-851 -882 0
-851 -883 0
-851 -884 0
-851 -885 0
-851 -886 0
-851 -887 0
-851 -888 0
-851 -889 0
-851 -890 0
-851 -891 0
-851 -892 0
-851 -893 0
-851 -894 0
-851 -895 0
-851 -896 0
-851 -897 0
-851 -898 0
-851 -899 0
-851 -900 0
-851 -901 0
-851 -902 0
-851 -903 0
-851 -904 0
-851 -905 0
-851 -906 0
-851 -907 0
-851 -908 0
-851 -909 0
-851 -910 0
-851 -911 0
-851 -912 0
-851 -913 0
-851 -914 0
-851 -915 0
-851 -916 0
-852 -853 0
-852 -854 0
-852 -855 0
-852 -856 0
-852 -857 0
-852 -858 0
-852 -859 0
-852 -860 0
-852 -861 0
-852 -862 0
-852 -863 0
-852 -864 0
-852 -865 0
-852 -866 0
-852 -867 0
-852 -868 0
-852 -869 0
-852 -870 0
-852 -871 0
-852 -872 0
-852 -873 0
-852 -874 0
-852 -875 0
-852 -876 0
-852 -877 0
-852 -878 0
-852 -879 0
-852 -880 0
-852 -881 0
-852 -882 0
-852 -883 0
-852 -884 0
-852 -885 0
-852 -886 0
-852 -887 0
-852 -888 0
-852 -889 0
-852 -890 0
-852 -891 0
-852 -892 0
-852 -893 0
-852 -894 0
-852 -895 0
-852 -896 0
-852 -897 0
-852 -898 0
-852 -899 0
-852 -900 0
-852 -901 0
-852 -902 0
-852 -903 0
-852 -904 0
-852 -905 0
-852 -906 0
-852 -907 0
-852 -908 0
-852 -909 0
-852 -910 0
-852 -911 0
-852 -912 0
-852 -913 0
-852 -914 0
-852 -915 0
-852 -916 0
-853 -854 0
-853 -855 0
-853 -856 0
-853 -857 0
-853 -858 0
-853 -859 0
-853 -860 0
-853 -861 0
-853 -862 0
-853 -863 0
-853 -864 0
-853 -865 0
-853 -866 0
-853 -867 0
-853 -868 0
-853 -869 0
-853 -870 0
-853 -871 0
-853 -872 0
-853 -873 0
-853 -874 0
-853 -875 0
-853 -876 0
-853 -877 0
-853 -878 0
-853 -879 0
-853 -880 0
-853 -881 0
-853 -882 0
-853 -883 0
-853 -884 0
-853 -885 0
-853 -886 0
-853 -887 0
-853 -888 0
-853 -889 0
-853 -890 0
-853 -891 0
-853 -892 0
-853 -893 0
-853 -894 0
-853 -895 0
-853 -896 0
-853 -897 0
-853 -898 0
-853 -899 0
-853 -900 0
-853 -901 0
-853 -902 0
-853 -903 0
-853 -904 0
-853 -905 0
-853 -906 0
-853 -907 0
-853 -908 0
-853 -909 0
-853 -910 0
-853 -911 0
-853 -912 0
-853 -913 0
-853 -914 0
-853 -915 0
-853 -916 0
-854 -855 0
-854 -856 0
-854 -857 0
-854 -858 0
-854 -859 0
-854 -860 0
-854 -861 0
-854 -862 0
-854 -863 0
-854 -864 0
-854 -865 0
-854 -866 0
-854 -867 0
-854 -868 0
-854 -869 0
-854 -870 0
-854 -871 0
-854 -872 0
-854 -873 0
-854 -874 0
-854 -875 0
-854 -876 0
-854 -877 0
-854 -878 0
-854 -879 0
-854 -880 0
-854 -881 0
-854 -882 0
-854 -883 0
-854 -884 0
-854 -885 0
-854 -886 0
-854 -887 0
-854 -888 0
-854 -889 0
-854 -890 0
-854 -891 0
-854 -892 0
-854 -893 0
-854 -894 0
-854 -895 0
-854 -896 0
-854 -897 0
-854 -898 0
-854 -899 0
-854 -900 0
-854 -901 0
-854 -902 0
-854 -903 0
-854 -904 0
-854 -905 0
-854 -906 0
-854 -907 0
-854 -908 0
-854 -909 0
-854 -910 0
-854 -911 0
-854 -912 0
-854 -913 0
-854 -914 0
-854 -915 0
-854 -916 0
-855 -856 0
-855 -857 0
-855 -858 0
-855 -859 0
-855 -860 0
-855 -861 0
-855 -862 0
-855 -863 0
-855 -864 0
-855 -865 0
-855 -866 0
-855 -867 0
-855 -868 0
-855 -869 0
-855 -870 0
-855 -871 0
-855 -872 0
-855 -873 0
-855 -874 0
-855 -875 0
-855 -876 0
-855 -877 0
-855 -878 0
-855 -879 0
-855 -880 0
-855 -881 0
-855 -882 0
-855 -883 0
-855 -884 0
-855 -885 0
-855 -886 0
-855 -887 0
-855 -888 0
-855 -889 0
-855 -890 0
-855 -891 0
-855 -892 0
-855 -893 0
-855 -894 0
-855 -895 0
-855 -896 0
-855 -897 0
-855 -898 0
-855 -899 0
-855 -900 0
-855 -901 0
-855 -902 0
-855 -903 0
-855 -904 0
-855 -905 0
-855 -906 0
-855 -907 0
-855 -908 0
-855 -909 0
-855 -910 0
-855 -911 0
-855 -912 0
-855 -913 0
-855 -914 0
-855 -915 0
-855 -916 0
-856 -857 0
-856 -858 0
-856 -859 0
-856 -860 0
-856 -861 0
-856 -862 0
-856 -863 0
-856 -864 0
-856 -865 0
-856 -866 0
-856 -867 0
-856 -868 0
-856 -869 0
-856 -870 0
-856 -871 0
-856 -872 0
-856 -873 0
-856 -874 0
-856 -875 0
-856 -876 0
-856 -877 0
-856 -878 0
-856 -879 0
-856 -880 0
-856 -881 0
-856 -882 0
-856 -883 0
-856 -884 0
-856 -885 0
-856 -886 0
-856 -887 0
-856 -888 0
-856 -889 0
-856 -890 0
-856 -891 0
-856 -892 0
-856 -893 0
-856 -894 0
-856 -895 0
-856 -896 0
-856 -897 0
-856 -898 0
-856 -899 0
-856 -900 0
-856 -901 0
-856 -902 0
-856 -903 0
-856 -904 0
-856 -905 0
-856 -906 0
-856 -907 0
-856 -908 0
-856 -909 0
-856 -910 0
-856 -911 0
-856 -912 0
-856 -913 0
-856 -914 0
-856 -915 0
-856 -916 0
-857 -858 0
-857 -859 0
-857 -860 0
-857 -861 0
-857 -862 0
-857 -863 0
-857 -864 0
-857 -865 0
-857 -866 0
-857 -867 0
-857 -868 0
-857 -869 0
-857 -870 0
-857 -871 0
-857 -872 0
-857 -873 0
-857 -874 0
-857 -875 0
-857 -876 0
-857 -877 0
-857 -878 0
-857 -879 0
-857 -880 0
-857 -881 0
-857 -882 0
-857 -883 0
-857 -884 0
-857 -885 0
-857 -886 0
-857 -887 0
-857 -888 0
-857 -889 0
-857 -890 0
-857 -891 0
-857 -892 0
-857 -893 0
-857 -894 0
-857 -895 0
-857 -896 0
-857 -897 0
-857 -898 0
-857 -899 0
-857 -900 0
-857 -901 0
-857 -902 0
-857 -903 0
-857 -904 0
-857 -905 0
-857 -906 0
-857 -907 0
-857 -908 0
-857 -909 0
-857 -910 0
-857 -911 0
-857 -912 0
-857 -913 0
-857 -914 0
-857 -915 0
-857 -916 0
-858 -859 0
-858 -860 0
-858 -861 0
-858 -862 0
-858 -863 0
-858 -864 0
-858 -865 0
-858 -866 0
-858 -867 0
-858 -868 0
-858 -869 0
-858 -870 0
-858 -871 0
-858 -872 0
-858 -873 0
-858 -874 0
-858 -875 0
-858 -876 0
-858 -877 0
-858 -878 0
-858 -879 0
-858 -880 0
-858 -881 0
-858 -882 0
-858 -883 0
-858 -884 0
-858 -885 0
-858 -886 0
-858 -887 0
-858 -888 0
-858 -889 0
-858 -890 0
-858 -891 0
-858 -892 0
-858 -893 0
-858 -894 0
-858 -895 0
-858 -896 0
-858 -897 0
-858 -898 0
-858 -899 0
-858 -900 0
-858 -901 0
-858 -902 0
-858 -903 0
-858 -904 0
-858 -905 0
-858 -906 0
-858 -907 0
-858 -908 0
-858 -909 0
-858 -910 0
-858 -911 0
-858 -912 0
-858 -913 0
-858 -914 0
-858 -915 0
-858 -916 0
-859 -860 0
-859 -861 0
-859 -862 0
-859 -863 0
-859 -864 0
-859 -865 0
-859 -866 0
-859 -867 0
-859 -868 0
-859 -869 0
-859 -870 0
-859 -871 0
-859 -872 0
-859 -873 0
-859 -874 0
-859 -875 0
-859 -876 0
-859 -877 0
-859 -878 0
-859 -879 0
-859 -880 0
-859 -881 0
-859 -882 0
-859 -883 0
-859 -884 0
-859 -885 0
-859 -886 0
-859 -887 0
-859 -888 0
-859 -889 0
-859 -890 0
-859 -891 0
-859 -892 0
-859 -893 0
-859 -894 0
-859 -895 0
-859 -896 0
-859 -897 0
-859 -898 0
-859 -899 0
-859 -900 0
-859 -901 0
-859 -902 0
-859 -903 0
-859 -904 0
-859 -905 0
-859 -906 0
-859 -907 0
-859 -908 0
-859 -909 0
-859 -910 0
-859 -911 0
-859 -912 0
-859 -913 0
-859 -914 0
-859 -915 0
-859 -916 0
-860 -861 0
-860 -862 0
-860 -863 0
-860 -864 0
-860 -865 0
-860 -866 0
-860 -867 0
-860 -868 0
-860 -869 0
-860 -870 0
-860 -871 0
-860 -872 0
-860 -873 0
-860 -874 0
-860 -875 0
-860 -876 0
-860 -877 0
-860 -878 0
-860 -879 0
-860 -880 0
-860 -881 0
-860 -882 0
-860 -883 0
-860 -884 0
-860 -885 0
-860 -886 0
-860 -887 0
-860 -888 0
-860 -889 0
-860 -890 0
-860 -891 0
-860 -892 0
-860 -893 0
-860 -894 0
-860 -895 0
-860 -896 0
-860 -897 0
-860 -898 0
-860 -899 0
-860 -900 0
-860 -901 0
-860 -902 0
-860 -903 0
-860 -904 0
-860 -905 0
-860 -906 0
-860 -907 0
-860 -908 0
-860 -909 0
-860 -910 0
-860 -911 0
-860 -912 0
-860 -913 0
-860 -914 0
-860 -915 0
-860 -916 0
-861 -862 0
-861 -863 0
-861 -864 0
-861 -865 0
-861 -866 0
-861 -867 0
-861 -868 0
-861 -869 0
-861 -870 0
-861 -871 0
-861 -872 0
-861 -873 0
-861 -874 0
-861 -875 0
-861 -876 0
-861 -877 0
-861 -878 0
-861 -879 0
-861 -880 0
-861 -881 0
-861 -882 0
-861 -883 0
-861 -884 0
-861 -885 0
-861 -886 0
-861 -887 0
-861 -888 0
-861 -889 0
-861 -890 0
-861 -891 0
-861 -892 0
-861 -893 0
-861 -894 0
-861 -895 0
-861 -896 0
-861 -897 0
-861 -898 0
-861 -899 0
-861 -900 0
-861 -901 0
-861 -902 0
-861 -903 0
-861 -904 0
-861 -905 0
-861 -906 0
-861 -907 0
-861 -908 0
-861 -909 0
-861 -910 0
-861 -911 0
-861 -912 0
-861 -913 0
-861 -914 0
-861 -915 0
-861 -916 0
-862 -863 0
-862 -864 0
-862 -865 0
-862 -866 0
-862 -867 0
-862 -868 0
-862 -869 0
-862 -870 0
-862 -871 0
-862 -872 0
-862 -873 0
-862 -874 0
-862 -875 0
-862 -876 0
-862 -877 0
-862 -878 0
-862 -879 0
-862 -880 0
-862 -881 0
-862 -882 0
-862 -883 0
-862 -884 0
-862 -885 0
-862 -886 0
-862 -887 0
-862 -888 0
-862 -889 0
-862 -890 0
-862 -891 0
-862 -892 0
-862 -893 0
-862 -894 0
-862 -895 0
-862 -896 0
-862 -897 0
-862 -898 0
-862 -899 0
-862 -900 0
-862 -901 0
-862 -902 0
-862 -903 0
-862 -904 0
-862 -905 0
-862 -906 0
-862 -907 0
-862 -908 0
-862 -909 0
-862 -910 0
-862 -911 0
-862 -912 0
-862 -913 0
-862 -914 0
-862 -915 0
-862 -916 0
-863 -864 0
-863 -865 0
-863 -866 0
-863 -867 0
-863 -868 0
-863 -869 0
-863 -870 0
-863 -871 0
-863 -872 0
-863 -873 0
-863 -874 0
-863 -875 0
-863 -876 0
-863 -877 0
-863 -878 0
-863 -879 0
-863 -880 0
-863 -881 0
-863 -882 0
-863 -883 0
-863 -884 0
-863 -885 0
-863 -886 0
-863 -887 0
-863 -888 0
-863 -889 0
-863 -890 0
-863 -891 0
-863 -892 0
-863 -893 0
-863 -894 0
-863 -895 0
-863 -896 0
-863 -897 0
-863 -898 0
-863 -899 0
-863 -900 0
-863 -901 0
-863 -902 0
-863 -903 0
-863 -904 0
-863 -905 0
-863 -906 0
-863 -907 0
-863 -908 0
-863 -909 0
-863 -910 0
-863 -911 0
-863 -912 0
-863 -913 0
-863 -914 0
-863 -915 0
-863 -916 0
-864 -865 0
-864 -866 0
-864 -867 0
-864 -868 0
-864 -869 0
-864 -870 0
-864 -871 0
-864 -872 0
-864 -873 0
-864 -874 0
-864 -875 0
-864 -876 0
-864 -877 0
-864 -878 0
-864 -879 0
-864 -880 0
-864 -881 0
-864 -882 0
-864 -883 0
-864 -884 0
-864 -885 0
-864 -886 0
-864 -887 0
-864 -888 0
-864 -889 0
-864 -890 0
-864 -891 0
-864 -892 0
-864 -893 0
-864 -894 0
-864 -895 0
-864 -896 0
-864 -897 0
-864 -898 0
-864 -899 0
-864 -900 0
-864 -901 0
-864 -902 0
-864 -903 0
-864 -904 0
-864 -905 0
-864 -906 0
-864 -907 0
-864 -908 0
-864 -909 0
-864 -910 0
-864 -911 0
-864 -912 0
-864 -913 0
-864 -914 0
-864 -915 0
-864 -916 0
-865 -866 0
-865 -867 0
-865 -868 0
-865 -869 0
-865 -870 0
-865 -871 0
-865 -872 0
-865 -873 0
-865 -874 0
-865 -875 0
-865 -876 0
-865 -877 0
-865 -878 0
-865 -879 0
-865 -880 0
-865 -881 0
-865 -882 0
-865 -883 0
-865 -884 0
-865 -885 0
-865 -886 0
-865 -887 0
-865 -888 0
-865 -889 0
-865 -890 0
-865 -891 0
-865 -892 0
-865 -893 0
-865 -894 0
-865 -895 0
-865 -896 0
-865 -897 0
-865 -898 0
-865 -899 0
-865 -900 0
-865 -901 0
-865 -902 0
-865 -903 0
-865 -904 0
-865 -905 0
-865 -906 0
-865 -907 0
-865 -908 0
-865 -909 0
-865 -910 0
-865 -911 0
-865 -912 0
-865 -913 0
-865 -914 0
-865 -915 0
-865 -916 0
-866 -867 0
-866 -868 0
-866 -869 0
-866 -870 0
-866 -871 0
-866 -872 0
-866 -873 0
-866 -874 0
-866 -875 0
-866 -876 0
-866 -877 0
-866 -878 0
-866 -879 0
-866 -880 0
-866 -881 0
-866 -882 0
-866 -883 0
-866 -884 0
-866 -885 0
-866 -886 0
-866 -887 0
-866 -888 0
-866 -889 0
-866 -890 0
-866 -891 0
-866 -892 0
-866 -893 0
-866 -894 0
-866 -895 0
-866 -896 0
-866 -897 0
-866 -898 0
-866 -899 0
-866 -900 0
-866 -901 0
-866 -902 0
-866 -903 0
-866 -904 0
-866 -905 0
-866 -906 0
-866 -907 0
-866 -908 0
-866 -909 0
-866 -910 0
-866 -911 0
-866 -912 0
-866 -913 0
-866 -914 0
-866 -915 0
-866 -916 0
-867 -868 0
-867 -869 0
-867 -870 0
-867 -871 0
-867 -872 0
-867 -873 0
-867 -874 0
-867 -875 0
-867 -876 0
-867 -877 0
-867 -878 0
-867 -879 0
-867 -880 0
-867 -881 0
-867 -882 0
-867 -883 0
-867 -884 0
-867 -885 0
-867 -886 0
-867 -887 0
-867 -888 0
-867 -889 0
-867 -890 0
-867 -891 0
-867 -892 0
-867 -893 0
-867 -894 0
-867 -895 0
-867 -896 0
-867 -897 0
-867 -898 0
-867 -899 0
-867 -900 0
-867 -901 0
-867 -902 0
-867 -903 0
-867 -904 0
-867 -905 0
-867 -906 0
-867 -907 0
-867 -908 0
-867 -909 0
-867 -910 0
-867 -911 0
-867 -912 0
-867 -913 0
-867 -914 0
-867 -915 0
-867 -916 0
-868 -869 0
-868 -870 0
-868 -871 0
-868 -872 0
-868 -873 0
-868 -874 0
-868 -875 0
-868 -876 0
-868 -877 0
-868 -878 0
-868 -879 0
-868 -880 0
-868 -881 0
-868 -882 0
-868 -883 0
-868 -884 0
-868 -885 0
-868 -886 0
-868 -887 0
-868 -888 0
-868 -889 0
-868 -890 0
-868 -891 0
-868 -892 0
-868 -893 0
-868 -894 0
-868 -895 0
-868 -896 0
-868 -897 0
-868 -898 0
-868 -899 0
-868 -900 0
-868 -901 0
-868 -902 0
-868 -903 0
-868 -904 0
-868 -905 0
-868 -906 0
-868 -907 0
-868 -908 0
-868 -909 0
-868 -910 0
-868 -911 0
-868 -912 0
-868 -913 0
-868 -914 0
-868 -915 0
-868 -916 0
-869 -870 0
-869 -871 0
-869 -872 0
-869 -873 0
-869 -874 0
-869 -875 0
-869 -876 0
-869 -877 0
-869 -878 0
-869 -879 0
-869 -880 0
-869 -881 0
-869 -882 0
-869 -883 0
-869 -884 0
-869 -885 0
-869 -886 0
-869 -887 0
-869 -888 0
-869 -889 0
-869 -890 0
-869 -891 0
-869 -892 0
-869 -893 0
-869 -894 0
-869 -895 0
-869 -896 0
-869 -897 0
-869 -898 0
-869 -899 0
-869 -900 0
-869 -901 0
-869 -902 0
-869 -903 0
-869 -904 0
-869 -905 0
-869 -906 0
-869 -907 0
-869 -908 0
-869 -909 0
-869 -910 0
-869 -911 0
-869 -912 0
-869 -913 0
-869 -914 0
-869 -915 0
-869 -916 0
-870 -871 0
-870 -872 0
-870 -873 0
-870 -874 0
-870 -875 0
-870 -876 0
-870 -877 0
-870 -878 0
-870 -879 0
-870 -880 0
-870 -881 0
-870 -882 0
-870 -883 0
-870 -884 0
-870 -885 0
-870 -886 0
-870 -887 0
-870 -888 0
-870 -889 0
-870 -890 0
-870 -891 0
-870 -892 0
-870 -893 0
-870 -894 0
-870 -895 0
-870 -896 0
-870 -897 0
-870 -898 0
-870 -899 0
-870 -900 0
-870 -901 0
-870 -902 0
-870 -903 0
-870 -904 0
-870 -905 0
-870 -906 0
-870 -907 0
-870 -908 0
-870 -909 0
-870 -910 0
-870 -911 0
-870 -912 0
-870 -913 0
-870 -914 0
-870 -915 0
-870 -916 0
-871 -872 0
-871 -873 0
-871 -874 0
-871 -875 0
-871 -876 0
-871 -877 0
-871 -878 0
-871 -879 0
-871 -880 0
-871 -881 0
-871 -882 0
-871 -883 0
-871 -884 0
-871 -885 0
-871 -886 0
-871 -887 0
-871 -888 0
-871 -889 0
-871 -890 0
-871 -891 0
-871 -892 0
-871 -893 0
-871 -894 0
-871 -895 0
-871 -896 0
-871 -897 0
-871 -898 0
-871 -899 0
-871 -900 0
-871 -901 0
-871 -902 0
-871 -903 0
-871 -904 0
-871 -905 0
-871 -906 0
-871 -907 0
-871 -908 0
-871 -909 0
-871 -910 0
-871 -911 0
-871 -912 0
-871 -913 0
-871 -914 0
-871 -915 0
-871 -916 0
-872 -873 0
-872 -874 0
-872 -875 0
-872 -876 0
-872 -877 0
-872 -878 0
-872 -879 0
-872 -880 0
-872 -881 0
-872 -882 0
-872 -883 0
-872 -884 0
-872 -885 0
-872 -886 0
-872 -887 0
-872 -888 0
-872 -889 0
-872 -890 0
-872 -891 0
-872 -892 0
-872 -893 0
-872 -894 0
-872 -895 0
-872 -896 0
-872 -897 0
-872 -898 0
-872 -899 0
-872 -900 0
-872 -901 0
-872 -902 0
-872 -903 0
-872 -904 0
-872 -905 0
-872 -906 0
-872 -907 0
-872 -908 0
-872 -909 0
-872 -910 0
-872 -911 0
-872 -912 0
-872 -913 0
-872 -914 0
-872 -915 0
-872 -916 0
-873 -874 0
-873 -875 0
-873 -876 0
-873 -877 0
-873 -878 0
-873 -879 0
-873 -880 0
-873 -881 0
-873 -882 0
-873 -883 0
-873 -884 0
-873 -885 0
-873 -886 0
-873 -887 0
-873 -888 0
-873 -889 0
-873 -890 0
-873 -891 0
-873 -892 0
-873 -893 0
-873 -894 0
-873 -895 0
-873 -896 0
-873 -897 0
-873 -898 0
-873 -899 0
-873 -900 0
-873 -901 0
-873 -902 0
-873 -903 0
-873 -904 0
-873 -905 0
-873 -906 0
-873 -907 0
-873 -908 0
-873 -909 0
-873 -910 0
-873 -911 0
-873 -912 0
-873 -913 0
-873 -914 0
-873 -915 0
-873 -916 0
-874 -875 0
-874 -876 0
-874 -877 0
-874 -878 0
-874 -879 0
-874 -880 0
-874 -881 0
-874 -882 0
-874 -883 0
-874 -884 0
-874 -885 0
-874 -886 0
-874 -887 0
-874 -888 0
-874 -889 0
-874 -890 0
-874 -891 0
-874 -892 0
-874 -893 0
-874 -894 0
-874 -895 0
-874 -896 0
-874 -897 0
-874 -898 0
-874 -899 0
-874 -900 0
-874 -901 0
-874 -902 0
-874 -903 0
-874 -904 0
-874 -905 0
-874 -906 0
-874 -907 0
-874 -908 0
-874 -909 0
-874 -910 0
-874 -911 0
-874 -912 0
-874 -913 0
-874 -914 0
-874 -915 0
-874 -916 0
-875 -876 0
-875 -877 0
-875 -878 0
-875 -879 0
-875 -880 0
-875 -881 0
-875 -882 0
-875 -883 0
-875 -884 0
-875 -885 0
-875 -886 0
-875 -887 0
-875 -888 0
-875 -889 0
-875 -890 0
-875 -891 0
-875 -892 0
-875 -893 0
-875 -894 0
-875 -895 0
-875 -896 0
-875 -897 0
-875 -898 0
-875 -899 0
-875 -900 0
-875 -901 0
-875 -902 0
-875 -903 0
-875 -904 0
-875 -905 0
-875 -906 0
-875 -907 0
-875 -908 0
-875 -909 0
-875 -910 0
-875 -911 0
-875 -912 0
-875 -913 0
-875 -914 0
-875 -915 0
-875 -916 0
-876 -877 0
-876 -878 0
-876 -879 0
-876 -880 0
-876 -881 0
-876 -882 0
-876 -883 0
-876 -884 0
-876 -885 0
-876 -886 0
-876 -887 0
-876 -888 0
-876 -889 0
-876 -890 0
-876 -891 0
-876 -892 0
-876 -893 0
-876 -894 0
-876 -895 0
-876 -896 0
-876 -897 0
-876 -898 0
-876 -899 0
-876 -900 0
-876 -901 0
-876 -902 0
-876 -903 0
-876 -904 0
-876 -905 0
-876 -906 0
-876 -907 0
-876 -908 0
-876 -909 0
-876 -910 0
-876 -911 0
-876 -912 0
-876 -913 0
-876 -914 0
-876 -915 0
-876 -916 0
-877 -878 0
-877 -879 0
-877 -880 0
-877 -881 0
-877 -882 0
-877 -883 0
-877 -884 0
-877 -885 0
-877 -886 0
-877 -887 0
-877 -888 0
-877 -889 0
-877 -890 0
-877 -891 0
-877 -892 0
-877 -893 0
-877 -894 0
-877 -895 0
-877 -896 0
-877 -897 0
-877 -898 0
-877 -899 0
-877 -900 0
-877 -901 0
-877 -902 0
-877 -903 0
-877 -904 0
-877 -905 0
-877 -906 0
-877 -907 0
-877 -908 0
-877 -909 0
-877 -910 0
-877 -911 0
-877 -912 0
-877 -913 0
-877 -914 0
-877 -915 0
-877 -916 0
-878 -879 0
-878 -880 0
-878 -881 0
-878 -882 0
-878 -883 0
-878 -884 0
-878 -885 0
-878 -886 0
-878 -887 0
-878 -888 0
-878 -889 0
-878 -890 0
-878 -891 0
-878 -892 0
-878 -893 0
-878 -894 0
-878 -895 0
-878 -896 0
-878 -897 0
-878 -898 0
-878 -899 0
-878 -900 0
-878 -901 0
-878 -902 0
-878 -903 0
-878 -904 0
-878 -905 0
-878 -906 0
-878 -907 0
-878 -908 0
-878 -909 0
-878 -910 0
-878 -911 0
-878 -912 0
-878 -913 0
-878 -914 0
-878 -915 0
-878 -916 0
-879 -880 0
-879 -881 0
-879 -882 0
-879 -883 0
-879 -884 0
-879 -885 0
-879 -886 0
-879 -887 0
-879 -888 0
-879 -889 0
-879 -890 0
-879 -891 0
-879 -892 0
-879 -893 0
-879 -894 0
-879 -895 0
-879 -896 0
-879 -897 0
-879 -898 0
-879 -899 0
-879 -900 0
-879 -901 0
-879 -902 0
-879 -903 0
-879 -904 0
-879 -905 0
-879 -906 0
-879 -907 0
-879 -908 0
-879 -909 0
-879 -910 0
-879 -911 0
-879 -912 0
-879 -913 0
-879 -914 0
-879 -915 0
-879 -916 0
-880 -881 0
-880 -882 0
-880 -883 0
-880 -884 0
-880 -885 0
-880 -886 0
-880 -887 0
-880 -888 0
-880 -889 0
-880 -890 0
-880 -891 0
-880 -892 0
-880 -893 0
-880 -894 0
-880 -895 0
-880 -896 0
-880 -897 0
-880 -898 0
-880 -899 0
-880 -900 0
-880 -901 0
-880 -902 0
-880 -903 0
-880 -904 0
-880 -905 0
-880 -906 0
-880 -907 0
-880 -908 0
-880 -909 0
-880 -910 0
-880 -911 0
-880 -912 0
-880 -913 0
-880 -914 0
-880 -915 0
-880 -916 0
-881 -882 0
-881 -883 0
-881 -884 0
-881 -885 0
-881 -886 0
-881 -887 0
-881 -888 0
-881 -889 0
-881 -890 0
-881 -891 0
-881 -892 0
-881 -893 0
-881 -894 0
-881 -895 0
-881 -896 0
-881 -897 0
-881 -898 0
-881 -899 0
-881 -900 0
-881 -901 0
-881 -902 0
-881 -903 0
-881 -904 0
-881 -905 0
-881 -906 0
-881 -907 0
-881 -908 0
-881 -909 0
-881 -910 0
-881 -911 0
-881 -912 0
-881 -913 0
-881 -914 0
-881 -915 0
-881 -916 0
-882 -883 0
-882 -884 0
-882 -885 0
-882 -886 0
-882 -887 0
-882 -888 0
-882 -889 0
-882 -890 0
-882 -891 0
-882 -892 0
-882 -893 0
-882 -894 0
-882 -895 0
-882 -896 0
-882 -897 0
-882 -898 0
-882 -899 0
-882 -900 0
-882 -901 0
-882 -902 0
-882 -903 0
-882 -904 0
-882 -905 0
-882 -906 0
-882 -907 0
-882 -908 0
-882 -909 0
-882 -910 0
-882 -911 0
-882 -912 0
-882 -913 0
-882 -914 0
-882 -915 0
-882 -916 0
-883 -884 0
-883 -885 0
-883 -886 0
-883 -887 0
-883 -888 0
-883 -889 0
-883 -890 0
-883 -891 0
-883 -892 0
-883 -893 0
-883 -894 0
-883 -895 0
-883 -896 0
-883 -897 0
-883 -898 0
-883 -899 0
-883 -900 0
-883 -901 0
-883 -902 0
-883 -903 0
-883 -904 0
-883 -905 0
-883 -906 0
-883 -907 0
-883 -908 0
-883 -909 0
-883 -910 0
-883 -911 0
-883 -912 0
-883 -913 0
-883 -914 0
-883 -915 0
-883 -916 0
-884 -885 0
-884 -886 0
-884 -887 0
-884 -888 0
-884 -889 0
-884 -890 0
-884 -891 0
-884 -892 0
-884 -893 0
-884 -894 0
-884 -895 0
-884 -896 0
-884 -897 0
-884 -898 0
-884 -899 0
-884 -900 0
-884 -901 0
-884 -902 0
-884 -903 0
-884 -904 0
-884 -905 0
-884 -906 0
-884 -907 0
-884 -908 0
-884 -909 0
-884 -910 0
-884 -911 0
-884 -912 0
-884 -913 0
-884 -914 0
-884 -915 0
-884 -916 0
-885 -886 0
-885 -887 0
-885 -888 0
-885 -889 0
-885 -890 0
-885 -891 0
-885 -892 0
-885 -893 0
-885 -894 0
-885 -895 0
-885 -896 0
-885 -897 0
-885 -898 0
-885 -899 0
-885 -900 0
-885 -901 0
-885 -902 0
-885 -903 0
-885 -904 0
-885 -905 0
-885 -906 0
-885 -907 0
-885 -908 0
-885 -909 0
-885 -910 0
-885 -911 0
-885 -912 0
-885 -913 0
-885 -914 0
-885 -915 0
-885 -916 0
-886 -887 0
-886 -888 0
-886 -889 0
-886 -890 0
-886 -891 0
-886 -892 0
-886 -893 0
-886 -894 0
-886 -895 0
-886 -896 0
-886 -897 0
-886 -898 0
-886 -899 0
-886 -900 0
-886 -901 0
-886 -902 0
-886 -903 0
-886 -904 0
-886 -905 0
-886 -906 0
-886 -907 0
-886 -908 0
-886 -909 0
-886 -910 0
-886 -911 0
-886 -912 0
-886 -913 0
-886 -914 0
-886 -915 0
-886 -916 0
-887 -888 0
-887 -889 0
-887 -890 0
-887 -891 0
-887 -892 0
-887 -893 0
-887 -894 0
-887 -895 0
-887 -896 0
-887 -897 0
-887 -898 0
-887 -899 0
-887 -900 0
-887 -901 0
-887 -902 0
-887 -903 0
-887 -904 0
-887 -905 0
-887 -906 0
-887 -907 0
-887 -908 0
-887 -909 0
-887 -910 0
-887 -911 0
-887 -912 0
-887 -913 0
-887 -914 0
-887 -915 0
-887 -916 0
-888 -889 0
-888 -890 0
-888 -891 0
-888 -892 0
-888 -893 0
-888 -894 0
-888 -895 0
-888 -896 0
-888 -897 0
-888 -898 0
-888 -899 0
-888 -900 0
-888 -901 0
-888 -902 0
-888 -903 0
-888 -904 0
-888 -905 0
-888 -906 0
-888 -907 0
-888 -908 0
-888 -909 0
-888 -910 0
-888 -911 0
-888 -912 0
-888 -913 0
-888 -914 0
-888 -915 0
-888 -916 0
-889 -890 0
-889 -891 0
-889 -892 0
-889 -893 0
-889 -894 0
-889 -895 0
-889 -896 0
-889 -897 0
-889 -898 0
-889 -899 0
-889 -900 0
-889 -901 0
-889 -902 0
-889 -903 0
-889 -904 0
-889 -905 0
-889 -906 0
-889 -907 0
-889 -908 0
-889 -909 0
-889 -910 0
-889 -911 0
-889 -912 0
-889 -913 0
-889 -914 0
-889 -915 0
-889 -916 0
-890 -891 0
-890 -892 0
-890 -893 0
-890 -894 0
-890 -895 0
-890 -896 0
-890 -897 0
-890 -898 0
-890 -899 0
-890 -900 0
-890 -901 0
-890 -902 0
-890 -903 0
-890 -904 0
-890 -905 0
-890 -906 0
-890 -907 0
-890 -908 0
-890 -909 0
-890 -910 0
-890 -911 0
-890 -912 0
-890 -913 0
-890 -914 0
-890 -915 0
-890 -916 0
-891 -892 0
-891 -893 0
-891 -894 0
-891 -895 0
-891 -896 0
-891 -897 0
-891 -898 0
-891 -899 0
-891 -900 0
-891 -901 0
-891 -902 0
-891 -903 0
-891 -904 0
-891 -905 0
-891 -906 0
-891 -907 0
-891 -908 0
-891 -909 0
-891 -910 0
-891 -911 0
-891 -912 0
-891 -913 0
-891 -914 0
-891 -915 0
-891 -916 0
-892 -893 0
-892 -894 0
-892 -895 0
-892 -896 0
-892 -897 0
-892 -898 0
-892 -899 0
-892 -900 0
-892 -901 0
-892 -902 0
-892 -903 0
-892 -904 0
-892 -905 0
-892 -906 0
-892 -907 0
-892 -908 0
-892 -909 0
-892 -910 0
-892 -911 0
-892 -912 0
-892 -913 0
-892 -914 0
-892 -915 0
-892 -916 0
-893 -894 0
-893 -895 0
-893 -896 0
-893 -897 0
-893 -898 0
-893 -899 0
-893 -900 0
-893 -901 0
-893 -902 0
-893 -903 0
-893 -904 0
-893 -905 0
-893 -906 0
-893 -907 0
-893 -908 0
-893 -909 0
-893 -910 0
-893 -911 0
-893 -912 0
-893 -913 0
-893 -914 0
-893 -915 0
-893 -916 0
-894 -895 0
-894 -896 0
-894 -897 0
-894 -898 0
-894 -899 0
-894 -900 0
-894 -901 0
-894 -902 0
-894 -903 0
-894 -904 0
-894 -905 0
-894 -906 0
-894 -907 0
-894 -908 0
-894 -909 0
-894 -910 0
-894 -911 0
-894 -912 0
-894 -913 0
-894 -914 0
-894 -915 0
-894 -916 0
-895 -896 0
-895 -897 0
-895 -898 0
-895 -899 0
-895 -900 0
-895 -901 0
-895 -902 0
-895 -903 0
-895 -904 0
-895 -905 0
-895 -906 0
-895 -907 0
-895 -908 0
-895 -909 0
-895 -910 0
-895 -911 0
-895 -912 0
-895 -913 0
-895 -914 0
-895 -915 0
-895 -916 0
-896 -897 0
-896 -898 0
-896 -899 0
-896 -900 0
-896 -901 0
-896 -902 0
-896 -903 0
-896 -904 0
-896 -905 0
-896 -906 0
-896 -907 0
-896 -908 0
-896 -909 0
-896 -910 0
-896 -911 0
-896 -912 0
-896 -913 0
-896 -914 0
-896 -915 0
-896 -916 0
-897 -898 0
-897 -899 0
-897 -900 0
-897 -901 0
-897 -902 0
-897 -903 0
-897 -904 0
-897 -905 0
-897 -906 0
-897 -907 0
-897 -908 0
-897 -909 0
-897 -910 0
-897 -911 0
-897 -912 0
-897 -913 0
-897 -914 0
-897 -915 0
-897 -916 0
-898 -899 0
-898 -900 0
-898 -901 0
-898 -902 0
-898 -903 0
-898 -904 0
-898 -905 0
-898 -906 0
-898 -907 0
-898 -908 0
-898 -909 0
-898 -910 0
-898 -911 0
-898 -912 0
-898 -913 0
-898 -914 0
-898 -915 0
-898 -916 0
-899 -900 0
-899 -901 0
-899 -902 0
-899 -903 0
-899 -904 0
-899 -905 0
-899 -906 0
-899 -907 0
-899 -908 0
-899 -909 0
-899 -910 0
-899 -911 0
-899 -912 0
-899 -913 0
-899 -914 0
-899 -915 0
-899 -916 0
-900 -901 0
-900 -902 0
-900 -903 0
-900 -904 0
-900 -905 0
-900 -906 0
-900 -907 0
-900 -908 0
-900 -909 0
-900 -910 0
-900 -911 0
-900 -912 0
-900 -913 0
-900 -914 0
-900 -915 0
-900 -916 0
-901 -902 0
-901 -903 0
-901 -904 0
-901 -905 0
-901 -906 0
-901 -907 0
-901 -908 0
-901 -909 0
-901 -910 0
-901 -911 0
-901 -912 0
-901 -913 0
-901 -914 0
-901 -915 0
-901 -916 0
-902 -903 0
-902 -904 0
-902 -905 0
-902 -906 0
-902 -907 0
-902 -908 0
-902 -909 0
-902 -910 0
-902 -911 0
-902 -912 0
-902 -913 0
-902 -914 0
-902 -915 0
-902 -916 0
-903 -904 0
-903 -905 0
-903 -906 0
-903 -907 0
-903 -908 0
-903 -909 0
-903 -910 0
-903 -911 0
-903 -912 0
-903 -913 0
-903 -914 0
-903 -915 0
-903 -916 0
-904 -905 0
-904 -906 0
-904 -907 0
-904 -908 0
-904 -909 0
-904 -910 0
-904 -911 0
-904 -912 0
-904 -913 0
-904 -914 0
-904 -915 0
-904 -916 0
-905 -906 0
-905 -907 0
-905 -908 0
-905 -909 0
-905 -910 0
-905 -911 0
-905 -912 0
-905 -913 0
-905 -914 0
-905 -915 0
-905 -916 0
-906 -907 0
-906 -908 0
-906 -909 0
-906 -910 0
-906 -911 0
-906 -912 0
-906 -913 0
-906 -914 0
-906 -915 0
-906 -916 0
-907 -908 0
-907 -909 0
-907 -910 0
-907 -911 0
-907 -912 0
-907 -913 0
-907 -914 0
-907 -915 0
-907 -916 0
-908 -909 0
-908 -910 0
-908 -911 0
-908 -912 0
-908 -913 0
-908 -914 0
-908 -915 0
-908 -916 0
-909 -910 0
-909 -911 0
-909 -912 0
-909 -913 0
-909 -914 0
-909 -915 0
-909 -916 0
-910 -911 0
-910 -912 0
-910 -913 0
-910 -914 0
-910 -915 0
-910 -916 0
-911 -912 0
-911 -913 0
-911 -914 0
-911 -915 0
-911 -916 0
-912 -913 0
-912 -914 0
-912 -915 0
-912 -916 0
-913 -914 0
-913 -915 0
-913 -916 0
-914 -915 0
-914 -916 0
-915 -916 0
833 834 835 836 837 838 839 840 841 842 843 844 845 846 847 848 849 850 851 852 853 854 855 856 -255 11 0
833 834 835 836 837 838 839 840 841 842 843 844 845 846 847 848 849 850 851 852 853 854 855 856 -256 296 0
833 834 835 836 837 838 839 840 841 842 843 844 845 846 847 848 849 850 851 852 853 854 855 856 -257 297 0
833 834 835 836 837 838 839 840 841 842 843 844 845 846 847 848 849 850 851 852 853 854 855 856 -258 298 0
833 834 835 836 837 838 839 840 841 842 843 844 845 846 847 848 849 850 851 852 853 854 855 856 -259 299 0
833 834 835 836 837 838 839 840 841 842 843 844 845 846 847 848 849 850 851 852 853 854 855 856 -260 300 0
833 834 835 836 837 838 839 840 841 842 843 844 845 846 847 848 849 850 851 852 853 854 855 856 -261 301 0
833 834 835 836 837 838 839 840 841 842 843 844 845 846 847 848 849 850 851 852 853 854 855 856 -262 12 0
833 834 835 836 837 838 839 840 841 842 843 844 845 846 847 848 849 850 851 852 853 854 855 856 -263 302 0
833 834 835 836 837 838 839 840 841 842 843 844 845 846 847 848 849 850 851 852 853 854 855 856 -264 303 0
857 858 859 860 861 862 863 864 865 866 867 868 869 870 871 872 873 874 875 876 877 878 879 880 -265 304 0
857 858 859 860 861 862 863 864 865 866 867 868 869 870 871 872 873 874 875 876 877 878 879 880 -266 13 0
857 858 859 860 861 862 863 864 865 866 867 868 869 870 871 872 873 874 875 876 877 878 879 880 -267 305 0
857 858 859 860 861 862 863 864 865 866 867 868 869 870 871 872 873 874 875 876 877 878 879 880 -268 306 0
857 858 859 860 861 862 863 864 865 866 867 868 869 870 871 872 873 874 875 876 877 878 879 880 -269 307 0
857 858 859 860 861 862 863 864 865 866 867 868 869 870 871 872 873 874 875 876 877 878 879 880 -270 308 0
857 858 859 860 861 862 863 864 865 866 867 868 869 870 871 872 873 874 875 876 877 878 879 880 -271 309 0
857 858 859 860 861 862 863 864 865 866 867 868 869 870 871 872 873 874 875 876 877 878 879 880 -272 14 0
857 858 859 860 861 862 863 864 865 866 867 868 869 870 871 872 873 874 875 876 877 878 879 880 -273 310 0
857 858 859 860 861 862 863 864 865 866 867 868 869 870 871 872 873 874 875 876 877 878 879 880 -274 311 0
881 882 883 884 885 886 887 888 889 890 891 892 893 894 895 896 897 898 899 900 -275 9 0
881 882 883 884 885 886 887 888 889 890 891 892 893 894 895 896 897 898 899 900 -276 312 0
881 882 883 884 885 886 887 888 889 890 891 892 893 894 895 896 897 898 899 900 -277 313 0
881 882 883 884 885 886 887 888 889 890 891 892 893 894 895 896 897 898 899 900 -278 314 0
881 882 883 884 885 886 887 888 889 890 891 892 893 894 895 896 897 898 899 900 -279 315 0
881 882 883 884 885 886 887 888 889 890 891 892 893 894 895 896 897 898 899 900 -280 10 0
881 882 883 884 885 886 887 888 889 890 891 892 893 894 895 896 897 898 899 900 -281 316 0
881 882 883 884 885 886 887 888 889 890 891 892 893 894 895 896 897 898 899 900 -282 317 0
881 882 883 884 885 886 887 888 889 890 891 892 893 894 895 896 897 898 899 900 -283 318 0
901 902 903 904 905 906 907 908 909 910 911 912 913 914 915 916 -284 319 0
901 902 903 904 905 906 907 908 909 910 911 912 913 914 915 916 -285 320 0
901 902 903 904 905 906 907 908 909 910 911 912 913 914 915 916 -286 321 0
901 902 903 904 905 906 907 908 909 910 911 912 913 914 915 916 -287 15 0
901 902 903 904 905 906 907 908 909 910 911 912 913 914 915 916 -288 16 0
901 902 903 904 905 906 907 908 909 910 911 912 913 914 915 916 -289 322 0
901 902 903 904 905 906 907 908 909 910 911 912 913 914 915 916 -290 323 0
901 902 903 904 905 906 907 908 909 910 911 912 913 914 915 916 -291 324 0
