p cnf 102 966
1 0
-2 0
-3 0
-4 0
-5 0
6 0
-7 0
-8 0
9 0
10 0
-11 0
12 0
44 0
40 0
39 0
1 2 3 0
4 5 6 0
7 8 9 0
-1 -2 0
-1 -3 0
-2 -3 0
-4 -5 0
-4 -6 0
-5 -6 0
-7 -8 0
-7 -9 0
-8 -9 0
-4 -7 0
-1 -8 0
-2 -5 0
-10 -4 0
-10 -7 0
10 4 7 0
-11 -1 0
-11 -8 0
11 1 8 0
-12 -2 0
-12 -5 0
12 2 5 0
13 14 15 0
16 17 18 0
19 20 21 0
-13 -14 0
-13 -15 0
-14 -15 0
-16 -17 0
-16 -18 0
-17 -18 0
-19 -20 0
-19 -21 0
-20 -21 0
-16 -19 0
-13 -20 0
-14 -17 0
-22 -16 0
-22 -19 0
22 16 19 0
-23 -13 0
-23 -20 0
23 13 20 0
-24 -14 0
-24 -17 0
24 14 17 0
25 26 27 0
28 29 30 0
31 32 33 0
-25 -26 0
-25 -27 0
-26 -27 0
-28 -29 0
-28 -30 0
-29 -30 0
-31 -32 0
-31 -33 0
-32 -33 0
-28 -31 0
-25 -32 0
-26 -29 0
-34 -28 0
-34 -31 0
34 28 31 0
-35 -25 0
-35 -32 0
35 25 32 0
-36 -26 0
-36 -29 0
36 26 29 0
37 38 39 0
40 41 42 0
43 44 45 0
-37 -38 0
-37 -39 0
-38 -39 0
-40 -41 0
-40 -42 0
-41 -42 0
-43 -44 0
-43 -45 0
-44 -45 0
-40 -43 0
-37 -44 0
-38 -41 0
-46 -40 0
-46 -43 0
46 40 43 0
-47 -37 0
-47 -44 0
47 37 44 0
-48 -38 0
-48 -41 0
48 38 41 0
-49 -50 0
-49 -51 0
-49 -52 0
-49 -53 0
-49 -54 0
-49 -55 0
-49 -56 0
-49 -57 0
-49 -58 0
-49 -59 0
-49 -60 0
-49 -61 0
-49 -62 0
-49 -63 0
-49 -64 0
-49 -65 0
-49 -66 0
-50 -51 0
-50 -52 0
-50 -53 0
-50 -54 0
-50 -55 0
-50 -56 0
-50 -57 0
-50 -58 0
-50 -59 0
-50 -60 0
-50 -61 0
-50 -62 0
-50 -63 0
-50 -64 0
-50 -65 0
-50 -66 0
-51 -52 0
-51 -53 0
-51 -54 0
-51 -55 0
-51 -56 0
-51 -57 0
-51 -58 0
-51 -59 0
-51 -60 0
-51 -61 0
-51 -62 0
-51 -63 0
-51 -64 0
-51 -65 0
-51 -66 0
-52 -53 0
-52 -54 0
-52 -55 0
-52 -56 0
-52 -57 0
-52 -58 0
-52 -59 0
-52 -60 0
-52 -61 0
-52 -62 0
-52 -63 0
-52 -64 0
-52 -65 0
-52 -66 0
-53 -54 0
-53 -55 0
-53 -56 0
-53 -57 0
-53 -58 0
-53 -59 0
-53 -60 0
-53 -61 0
-53 -62 0
-53 -63 0
-53 -64 0
-53 -65 0
-53 -66 0
-54 -55 0
-54 -56 0
-54 -57 0
-54 -58 0
-54 -59 0
-54 -60 0
-54 -61 0
-54 -62 0
-54 -63 0
-54 -64 0
-54 -65 0
-54 -66 0
-55 -56 0
-55 -57 0
-55 -58 0
-55 -59 0
-55 -60 0
-55 -61 0
-55 -62 0
-55 -63 0
-55 -64 0
-55 -65 0
-55 -66 0
-56 -57 0
-56 -58 0
-56 -59 0
-56 -60 0
-56 -61 0
-56 -62 0
-56 -63 0
-56 -64 0
-56 -65 0
-56 -66 0
-57 -58 0
-57 -59 0
-57 -60 0
-57 -61 0
-57 -62 0
-57 -63 0
-57 -64 0
-57 -65 0
-57 -66 0
-58 -59 0
-58 -60 0
-58 -61 0
-58 -62 0
-58 -63 0
-58 -64 0
-58 -65 0
-58 -66 0
-59 -60 0
-59 -61 0
-59 -62 0
-59 -63 0
-59 -64 0
-59 -65 0
-59 -66 0
-60 -61 0
-60 -62 0
-60 -63 0
-60 -64 0
-60 -65 0
-60 -66 0
-61 -62 0
-61 -63 0
-61 -64 0
-61 -65 0
-61 -66 0
-62 -63 0
-62 -64 0
-62 -65 0
-62 -66 0
-63 -64 0
-63 -65 0
-63 -66 0
-64 -65 0
-64 -66 0
-65 -66 0
-49 1 0
-49 10 0
-49 12 0
-49 14 0
-49 23 0
-49 -13 0
-49 -24 0
-50 1 0
-50 10 0
-50 15 0
-50 23 0
-50 -13 0
-51 2 0
-51 10 0
-51 11 0
-51 13 0
-51 24 0
-51 -14 0
-51 -23 0
-52 2 0
-52 10 0
-52 15 0
-52 24 0
-52 -14 0
-53 3 0
-53 10 0
-53 11 0
-53 13 0
-53 -15 0
-53 -23 0
-54 3 0
-54 10 0
-54 12 0
-54 14 0
-54 -15 0
-54 -24 0
-55 4 0
-55 11 0
-55 12 0
-55 17 0
-55 22 0
-55 -16 0
-55 -24 0
-56 4 0
-56 11 0
-56 18 0
-56 22 0
-56 -16 0
-57 5 0
-57 11 0
-57 10 0
-57 16 0
-57 24 0
-57 -17 0
-57 -22 0
-58 5 0
-58 11 0
-58 18 0
-58 24 0
-58 -17 0
-59 6 0
-59 11 0
-59 10 0
-59 16 0
-59 -18 0
-59 -22 0
-60 6 0
-60 11 0
-60 12 0
-60 17 0
-60 -18 0
-60 -24 0
-61 7 0
-61 12 0
-61 11 0
-61 20 0
-61 22 0
-61 -19 0
-61 -23 0
-62 7 0
-62 12 0
-62 21 0
-62 22 0
-62 -19 0
-63 8 0
-63 12 0
-63 10 0
-63 19 0
-63 23 0
-63 -20 0
-63 -22 0
-64 8 0
-64 12 0
-64 21 0
-64 23 0
-64 -20 0
-65 9 0
-65 12 0
-65 10 0
-65 19 0
-65 -21 0
-65 -22 0
-66 9 0
-66 12 0
-66 11 0
-66 20 0
-66 -21 0
-66 -23 0
-67 -68 0
-67 -69 0
-67 -70 0
-67 -71 0
-67 -72 0
-67 -73 0
-67 -74 0
-67 -75 0
-67 -76 0
-67 -77 0
-67 -78 0
-67 -79 0
-67 -80 0
-67 -81 0
-67 -82 0
-67 -83 0
-67 -84 0
-68 -69 0
-68 -70 0
-68 -71 0
-68 -72 0
-68 -73 0
-68 -74 0
-68 -75 0
-68 -76 0
-68 -77 0
-68 -78 0
-68 -79 0
-68 -80 0
-68 -81 0
-68 -82 0
-68 -83 0
-68 -84 0
-69 -70 0
-69 -71 0
-69 -72 0
-69 -73 0
-69 -74 0
-69 -75 0
-69 -76 0
-69 -77 0
-69 -78 0
-69 -79 0
-69 -80 0
-69 -81 0
-69 -82 0
-69 -83 0
-69 -84 0
-70 -71 0
-70 -72 0
-70 -73 0
-70 -74 0
-70 -75 0
-70 -76 0
-70 -77 0
-70 -78 0
-70 -79 0
-70 -80 0
-70 -81 0
-70 -82 0
-70 -83 0
-70 -84 0
-71 -72 0
-71 -73 0
-71 -74 0
-71 -75 0
-71 -76 0
-71 -77 0
-71 -78 0
-71 -79 0
-71 -80 0
-71 -81 0
-71 -82 0
-71 -83 0
-71 -84 0
-72 -73 0
-72 -74 0
-72 -75 0
-72 -76 0
-72 -77 0
-72 -78 0
-72 -79 0
-72 -80 0
-72 -81 0
-72 -82 0
-72 -83 0
-72 -84 0
-73 -74 0
-73 -75 0
-73 -76 0
-73 -77 0
-73 -78 0
-73 -79 0
-73 -80 0
-73 -81 0
-73 -82 0
-73 -83 0
-73 -84 0
-74 -75 0
-74 -76 0
-74 -77 0
-74 -78 0
-74 -79 0
-74 -80 0
-74 -81 0
-74 -82 0
-74 -83 0
-74 -84 0
-75 -76 0
-75 -77 0
-75 -78 0
-75 -79 0
-75 -80 0
-75 -81 0
-75 -82 0
-75 -83 0
-75 -84 0
-76 -77 0
-76 -78 0
-76 -79 0
-76 -80 0
-76 -81 0
-76 -82 0
-76 -83 0
-76 -84 0
-77 -78 0
-77 -79 0
-77 -80 0
-77 -81 0
-77 -82 0
-77 -83 0
-77 -84 0
-78 -79 0
-78 -80 0
-78 -81 0
-78 -82 0
-78 -83 0
-78 -84 0
-79 -80 0
-79 -81 0
-79 -82 0
-79 -83 0
-79 -84 0
-80 -81 0
-80 -82 0
-80 -83 0
-80 -84 0
-81 -82 0
-81 -83 0
-81 -84 0
-82 -83 0
-82 -84 0
-83 -84 0
-67 13 0
-67 22 0
-67 24 0
-67 26 0
-67 35 0
-67 -25 0
-67 -36 0
-68 13 0
-68 22 0
-68 27 0
-68 35 0
-68 -25 0
-69 14 0
-69 22 0
-69 23 0
-69 25 0
-69 36 0
-69 -26 0
-69 -35 0
-70 14 0
-70 22 0
-70 27 0
-70 36 0
-70 -26 0
-71 15 0
-71 22 0
-71 23 0
-71 25 0
-71 -27 0
-71 -35 0
-72 15 0
-72 22 0
-72 24 0
-72 26 0
-72 -27 0
-72 -36 0
-73 16 0
-73 23 0
-73 24 0
-73 29 0
-73 34 0
-73 -28 0
-73 -36 0
-74 16 0
-74 23 0
-74 30 0
-74 34 0
-74 -28 0
-75 17 0
-75 23 0
-75 22 0
-75 28 0
-75 36 0
-75 -29 0
-75 -34 0
-76 17 0
-76 23 0
-76 30 0
-76 36 0
-76 -29 0
-77 18 0
-77 23 0
-77 22 0
-77 28 0
-77 -30 0
-77 -34 0
-78 18 0
-78 23 0
-78 24 0
-78 29 0
-78 -30 0
-78 -36 0
-79 19 0
-79 24 0
-79 23 0
-79 32 0
-79 34 0
-79 -31 0
-79 -35 0
-80 19 0
-80 24 0
-80 33 0
-80 34 0
-80 -31 0
-81 20 0
-81 24 0
-81 22 0
-81 31 0
-81 35 0
-81 -32 0
-81 -34 0
-82 20 0
-82 24 0
-82 33 0
-82 35 0
-82 -32 0
-83 21 0
-83 24 0
-83 22 0
-83 31 0
-83 -33 0
-83 -34 0
-84 21 0
-84 24 0
-84 23 0
-84 32 0
-84 -33 0
-84 -35 0
-85 -86 0
-85 -87 0
-85 -88 0
-85 -89 0
-85 -90 0
-85 -91 0
-85 -92 0
-85 -93 0
-85 -94 0
-85 -95 0
-85 -96 0
-85 -97 0
-85 -98 0
-85 -99 0
-85 -100 0
-85 -101 0
-85 -102 0
-86 -87 0
-86 -88 0
-86 -89 0
-86 -90 0
-86 -91 0
-86 -92 0
-86 -93 0
-86 -94 0
-86 -95 0
-86 -96 0
-86 -97 0
-86 -98 0
-86 -99 0
-86 -100 0
-86 -101 0
-86 -102 0
-87 -88 0
-87 -89 0
-87 -90 0
-87 -91 0
-87 -92 0
-87 -93 0
-87 -94 0
-87 -95 0
-87 -96 0
-87 -97 0
-87 -98 0
-87 -99 0
-87 -100 0
-87 -101 0
-87 -102 0
-88 -89 0
-88 -90 0
-88 -91 0
-88 -92 0
-88 -93 0
-88 -94 0
-88 -95 0
-88 -96 0
-88 -97 0
-88 -98 0
-88 -99 0
-88 -100 0
-88 -101 0
-88 -102 0
-89 -90 0
-89 -91 0
-89 -92 0
-89 -93 0
-89 -94 0
-89 -95 0
-89 -96 0
-89 -97 0
-89 -98 0
-89 -99 0
-89 -100 0
-89 -101 0
-89 -102 0
-90 -91 0
-90 -92 0
-90 -93 0
-90 -94 0
-90 -95 0
-90 -96 0
-90 -97 0
-90 -98 0
-90 -99 0
-90 -100 0
-90 -101 0
-90 -102 0
-91 -92 0
-91 -93 0
-91 -94 0
-91 -95 0
-91 -96 0
-91 -97 0
-91 -98 0
-91 -99 0
-91 -100 0
-91 -101 0
-91 -102 0
-92 -93 0
-92 -94 0
-92 -95 0
-92 -96 0
-92 -97 0
-92 -98 0
-92 -99 0
-92 -100 0
-92 -101 0
-92 -102 0
-93 -94 0
-93 -95 0
-93 -96 0
-93 -97 0
-93 -98 0
-93 -99 0
-93 -100 0
-93 -101 0
-93 -102 0
-94 -95 0
-94 -96 0
-94 -97 0
-94 -98 0
-94 -99 0
-94 -100 0
-94 -101 0
-94 -102 0
-95 -96 0
-95 -97 0
-95 -98 0
-95 -99 0
-95 -100 0
-95 -101 0
-95 -102 0
-96 -97 0
-96 -98 0
-96 -99 0
-96 -100 0
-96 -101 0
-96 -102 0
-97 -98 0
-97 -99 0
-97 -100 0
-97 -101 0
-97 -102 0
-98 -99 0
-98 -100 0
-98 -101 0
-98 -102 0
-99 -100 0
-99 -101 0
-99 -102 0
-100 -101 0
-100 -102 0
-101 -102 0
-85 25 0
-85 34 0
-85 36 0
-85 38 0
-85 47 0
-85 -37 0
-85 -48 0
-86 25 0
-86 34 0
-86 39 0
-86 47 0
-86 -37 0
-87 26 0
-87 34 0
-87 35 0
-87 37 0
-87 48 0
-87 -38 0
-87 -47 0
-88 26 0
-88 34 0
-88 39 0
-88 48 0
-88 -38 0
-89 27 0
-89 34 0
-89 35 0
-89 37 0
-89 -39 0
-89 -47 0
-90 27 0
-90 34 0
-90 36 0
-90 38 0
-90 -39 0
-90 -48 0
-91 28 0
-91 35 0
-91 36 0
-91 41 0
-91 46 0
-91 -40 0
-91 -48 0
-92 28 0
-92 35 0
-92 42 0
-92 46 0
-92 -40 0
-93 29 0
-93 35 0
-93 34 0
-93 40 0
-93 48 0
-93 -41 0
-93 -46 0
-94 29 0
-94 35 0
-94 42 0
-94 48 0
-94 -41 0
-95 30 0
-95 35 0
-95 34 0
-95 40 0
-95 -42 0
-95 -46 0
-96 30 0
-96 35 0
-96 36 0
-96 41 0
-96 -42 0
-96 -48 0
-97 31 0
-97 36 0
-97 35 0
-97 44 0
-97 46 0
-97 -43 0
-97 -47 0
-98 31 0
-98 36 0
-98 45 0
-98 46 0
-98 -43 0
-99 32 0
-99 36 0
-99 34 0
-99 43 0
-99 47 0
-99 -44 0
-99 -46 0
-100 32 0
-100 36 0
-100 45 0
-100 47 0
-100 -44 0
-101 33 0
-101 36 0
-101 34 0
-101 43 0
-101 -45 0
-101 -46 0
-102 33 0
-102 36 0
-102 35 0
-102 44 0
-102 -45 0
-102 -47 0
-1 13 49 50 0
-2 14 51 52 0
-3 15 53 54 0
-4 16 55 56 0
-5 17 57 58 0
-6 18 59 60 0
-7 19 61 62 0
-8 20 63 64 0
-9 21 65 66 0
1 -13 51 53 0
2 -14 49 54 0
3 -15 50 52 0
4 -16 57 59 0
5 -17 55 60 0
6 -18 56 58 0
7 -19 63 65 0
8 -20 61 66 0
9 -21 62 64 0
-10 22 57 59 63 65 0
-11 23 51 53 61 66 0
-12 24 49 54 55 60 0
10 -22 55 56 61 62 0
11 -23 49 50 63 64 0
12 -24 51 52 57 58 0
-13 25 67 68 0
-14 26 69 70 0
-15 27 71 72 0
-16 28 73 74 0
-17 29 75 76 0
-18 30 77 78 0
-19 31 79 80 0
-20 32 81 82 0
-21 33 83 84 0
13 -25 69 71 0
14 -26 67 72 0
15 -27 68 70 0
16 -28 75 77 0
17 -29 73 78 0
18 -30 74 76 0
19 -31 81 83 0
20 -32 79 84 0
21 -33 80 82 0
-22 34 75 77 81 83 0
-23 35 69 71 79 84 0
-24 36 67 72 73 78 0
22 -34 73 74 79 80 0
23 -35 67 68 81 82 0
24 -36 69 70 75 76 0
-25 37 85 86 0
-26 38 87 88 0
-27 39 89 90 0
-28 40 91 92 0
-29 41 93 94 0
-30 42 95 96 0
-31 43 97 98 0
-32 44 99 100 0
-33 45 101 102 0
25 -37 87 89 0
26 -38 85 90 0
27 -39 86 88 0
28 -40 93 95 0
29 -41 91 96 0
30 -42 92 94 0
31 -43 99 101 0
32 -44 97 102 0
33 -45 98 100 0
-34 46 93 95 99 101 0
-35 47 87 89 97 102 0
-36 48 85 90 91 96 0
34 -46 91 92 97 98 0
35 -47 85 86 99 100 0
36 -48 87 88 93 94 0
