p cnf 416 15001
1 0
-2 0
-3 0
-4 0
-5 0
-6 0
-7 0
8 0
-9 0
-10 0
-12 0
13 0
-14 0
-15 0
-16 0
-17 0
-18 0
19 0
-20 0
-21 0
23 0
-24 0
-25 0
-26 0
-27 0
28 0
-29 0
-30 0
-31 0
-33 0
-34 0
-35 0
36 0
37 0
-38 0
-39 0
-40 0
146 0
151 0
158 0
160 0
124 0
131 0
136 0
142 0
1 2 3 4 5 6 0
-1 -2 0
-1 -3 0
-1 -4 0
-1 -5 0
-1 -6 0
-2 -3 0
-2 -4 0
-2 -5 0
-2 -6 0
-3 -4 0
-3 -5 0
-3 -6 0
-4 -5 0
-4 -6 0
-5 -6 0
7 8 9 10 0
-7 -8 0
-7 -9 0
-7 -10 0
-8 -9 0
-8 -10 0
-9 -10 0
12 13 14 15 16 17 0
-12 -13 0
-12 -14 0
-12 -15 0
-12 -16 0
-12 -17 0
-13 -14 0
-13 -15 0
-13 -16 0
-13 -17 0
-14 -15 0
-14 -16 0
-14 -17 0
-15 -16 0
-15 -17 0
-16 -17 0
18 19 20 21 0
-18 -19 0
-18 -20 0
-18 -21 0
-19 -20 0
-19 -21 0
-20 -21 0
23 24 25 26 27 0
-23 -24 0
-23 -25 0
-23 -26 0
-23 -27 0
-24 -25 0
-24 -26 0
-24 -27 0
-25 -26 0
-25 -27 0
-26 -27 0
28 29 30 31 0
-28 -29 0
-28 -30 0
-28 -31 0
-29 -30 0
-29 -31 0
-30 -31 0
33 34 35 36 0
-33 -34 0
-33 -35 0
-33 -36 0
-34 -35 0
-34 -36 0
-35 -36 0
37 38 39 40 0
-37 -38 0
-37 -39 0
-37 -40 0
-38 -39 0
-38 -40 0
-39 -40 0
-1 -7 -12 -18 0
-1 -8 -12 -19 0
-1 -9 -12 -20 0
-1 -10 -12 -21 0
-2 -7 -13 -18 0
-2 -8 -13 -19 0
-2 -9 -13 -20 0
-2 -10 -13 -21 0
-3 -7 -14 -18 0
-3 -8 -14 -19 0
-3 -9 -14 -20 0
-3 -10 -14 -21 0
-4 -7 -15 -18 0
-4 -8 -15 -19 0
-4 -9 -15 -20 0
-4 -10 -15 -21 0
-5 -7 -16 -18 0
-5 -8 -16 -19 0
-5 -9 -16 -20 0
-5 -10 -16 -21 0
-6 -7 -17 -18 0
-6 -8 -17 -19 0
-6 -9 -17 -20 0
-6 -10 -17 -21 0
-1 -7 -23 -28 0
-1 -8 -23 -29 0
-1 -9 -23 -30 0
-1 -10 -23 -31 0
-2 -7 -23 -28 0
-2 -8 -23 -29 0
-2 -9 -23 -30 0
-2 -10 -23 -31 0
-2 -7 -24 -28 0
-2 -8 -24 -29 0
-2 -9 -24 -30 0
-2 -10 -24 -31 0
-3 -7 -24 -28 0
-3 -8 -24 -29 0
-3 -9 -24 -30 0
-3 -10 -24 -31 0
-3 -7 -25 -28 0
-3 -8 -25 -29 0
-3 -9 -25 -30 0
-3 -10 -25 -31 0
-4 -7 -25 -28 0
-4 -8 -25 -29 0
-4 -9 -25 -30 0
-4 -10 -25 -31 0
-4 -7 -26 -28 0
-4 -8 -26 -29 0
-4 -9 -26 -30 0
-4 -10 -26 -31 0
-5 -7 -26 -28 0
-5 -8 -26 -29 0
-5 -9 -26 -30 0
-5 -10 -26 -31 0
-5 -7 -27 -28 0
-5 -8 -27 -29 0
-5 -9 -27 -30 0
-5 -10 -27 -31 0
-6 -7 -27 -28 0
-6 -8 -27 -29 0
-6 -9 -27 -30 0
-6 -10 -27 -31 0
-1 -7 -33 -37 0
-1 -8 -33 -38 0
-1 -9 -33 -39 0
-1 -10 -33 -40 0
-2 -7 -33 -37 0
-2 -8 -33 -38 0
-2 -9 -33 -39 0
-2 -10 -33 -40 0
-2 -7 -34 -37 0
-2 -8 -34 -38 0
-2 -9 -34 -39 0
-2 -10 -34 -40 0
-3 -7 -33 -37 0
-3 -8 -33 -38 0
-3 -9 -33 -39 0
-3 -10 -33 -40 0
-3 -7 -34 -37 0
-3 -8 -34 -38 0
-3 -9 -34 -39 0
-3 -10 -34 -40 0
-3 -7 -35 -37 0
-3 -8 -35 -38 0
-3 -9 -35 -39 0
-3 -10 -35 -40 0
-4 -7 -34 -37 0
-4 -8 -34 -38 0
-4 -9 -34 -39 0
-4 -10 -34 -40 0
-4 -7 -35 -37 0
-4 -8 -35 -38 0
-4 -9 -35 -39 0
-4 -10 -35 -40 0
-4 -7 -36 -37 0
-4 -8 -36 -38 0
-4 -9 -36 -39 0
-4 -10 -36 -40 0
-5 -7 -35 -37 0
-5 -8 -35 -38 0
-5 -9 -35 -39 0
-5 -10 -35 -40 0
-5 -7 -36 -37 0
-5 -8 -36 -38 0
-5 -9 -36 -39 0
-5 -10 -36 -40 0
-6 -7 -36 -37 0
-6 -8 -36 -38 0
-6 -9 -36 -39 0
-6 -10 -36 -40 0
-12 -18 -23 -28 0
-12 -19 -23 -29 0
-12 -20 -23 -30 0
-12 -21 -23 -31 0
-13 -18 -23 -28 0
-13 -19 -23 -29 0
-13 -20 -23 -30 0
-13 -21 -23 -31 0
-13 -18 -24 -28 0
-13 -19 -24 -29 0
-13 -20 -24 -30 0
-13 -21 -24 -31 0
-14 -18 -24 -28 0
-14 -19 -24 -29 0
-14 -20 -24 -30 0
-14 -21 -24 -31 0
-14 -18 -25 -28 0
-14 -19 -25 -29 0
-14 -20 -25 -30 0
-14 -21 -25 -31 0
-15 -18 -25 -28 0
-15 -19 -25 -29 0
-15 -20 -25 -30 0
-15 -21 -25 -31 0
-15 -18 -26 -28 0
-15 -19 -26 -29 0
-15 -20 -26 -30 0
-15 -21 -26 -31 0
-16 -18 -26 -28 0
-16 -19 -26 -29 0
-16 -20 -26 -30 0
-16 -21 -26 -31 0
-16 -18 -27 -28 0
-16 -19 -27 -29 0
-16 -20 -27 -30 0
-16 -21 -27 -31 0
-17 -18 -27 -28 0
-17 -19 -27 -29 0
-17 -20 -27 -30 0
-17 -21 -27 -31 0
-12 -18 -33 -37 0
-12 -19 -33 -38 0
-12 -20 -33 -39 0
-12 -21 -33 -40 0
-13 -18 -33 -37 0
-13 -19 -33 -38 0
-13 -20 -33 -39 0
-13 -21 -33 -40 0
-13 -18 -34 -37 0
-13 -19 -34 -38 0
-13 -20 -34 -39 0
-13 -21 -34 -40 0
-14 -18 -33 -37 0
-14 -19 -33 -38 0
-14 -20 -33 -39 0
-14 -21 -33 -40 0
-14 -18 -34 -37 0
-14 -19 -34 -38 0
-14 -20 -34 -39 0
-14 -21 -34 -40 0
-14 -18 -35 -37 0
-14 -19 -35 -38 0
-14 -20 -35 -39 0
-14 -21 -35 -40 0
-15 -18 -34 -37 0
-15 -19 -34 -38 0
-15 -20 -34 -39 0
-15 -21 -34 -40 0
-15 -18 -35 -37 0
-15 -19 -35 -38 0
-15 -20 -35 -39 0
-15 -21 -35 -40 0
-15 -18 -36 -37 0
-15 -19 -36 -38 0
-15 -20 -36 -39 0
-15 -21 -36 -40 0
-16 -18 -35 -37 0
-16 -19 -35 -38 0
-16 -20 -35 -39 0
-16 -21 -35 -40 0
-16 -18 -36 -37 0
-16 -19 -36 -38 0
-16 -20 -36 -39 0
-16 -21 -36 -40 0
-17 -18 -36 -37 0
-17 -19 -36 -38 0
-17 -20 -36 -39 0
-17 -21 -36 -40 0
-23 -28 -33 -37 0
-23 -29 -33 -38 0
-23 -30 -33 -39 0
-23 -31 -33 -40 0
-23 -28 -34 -37 0
-23 -29 -34 -38 0
-23 -30 -34 -39 0
-23 -31 -34 -40 0
-24 -28 -33 -37 0
-24 -29 -33 -38 0
-24 -30 -33 -39 0
-24 -31 -33 -40 0
-24 -28 -34 -37 0
-24 -29 -34 -38 0
-24 -30 -34 -39 0
-24 -31 -34 -40 0
-24 -28 -35 -37 0
-24 -29 -35 -38 0
-24 -30 -35 -39 0
-24 -31 -35 -40 0
-25 -28 -33 -37 0
-25 -29 -33 -38 0
-25 -30 -33 -39 0
-25 -31 -33 -40 0
-25 -28 -34 -37 0
-25 -29 -34 -38 0
-25 -30 -34 -39 0
-25 -31 -34 -40 0
-25 -28 -35 -37 0
-25 -29 -35 -38 0
-25 -30 -35 -39 0
-25 -31 -35 -40 0
-25 -28 -36 -37 0
-25 -29 -36 -38 0
-25 -30 -36 -39 0
-25 -31 -36 -40 0
-26 -28 -34 -37 0
-26 -29 -34 -38 0
-26 -30 -34 -39 0
-26 -31 -34 -40 0
-26 -28 -35 -37 0
-26 -29 -35 -38 0
-26 -30 -35 -39 0
-26 -31 -35 -40 0
-26 -28 -36 -37 0
-26 -29 -36 -38 0
-26 -30 -36 -39 0
-26 -31 -36 -40 0
-27 -28 -35 -37 0
-27 -29 -35 -38 0
-27 -30 -35 -39 0
-27 -31 -35 -40 0
-27 -28 -36 -37 0
-27 -29 -36 -38 0
-27 -30 -36 -39 0
-27 -31 -36 -40 0
-11 -1 -7 -12 -19 0
-11 -1 -8 -12 -20 0
-11 -1 -9 -12 -21 0
-11 -2 -7 -13 -19 0
-11 -2 -8 -13 -20 0
-11 -2 -9 -13 -21 0
-11 -3 -7 -14 -19 0
-11 -3 -8 -14 -20 0
-11 -3 -9 -14 -21 0
-11 -4 -7 -15 -19 0
-11 -4 -8 -15 -20 0
-11 -4 -9 -15 -21 0
-11 -5 -7 -16 -19 0
-11 -5 -8 -16 -20 0
-11 -5 -9 -16 -21 0
-11 -6 -7 -17 -19 0
-11 -6 -8 -17 -20 0
-11 -6 -9 -17 -21 0
-11 -1 -7 -23 -29 0
-11 -1 -8 -23 -30 0
-11 -1 -9 -23 -31 0
-11 -2 -7 -23 -29 0
-11 -2 -8 -23 -30 0
-11 -2 -9 -23 -31 0
-11 -2 -7 -24 -29 0
-11 -2 -8 -24 -30 0
-11 -2 -9 -24 -31 0
-11 -3 -7 -24 -29 0
-11 -3 -8 -24 -30 0
-11 -3 -9 -24 -31 0
-11 -3 -7 -25 -29 0
-11 -3 -8 -25 -30 0
-11 -3 -9 -25 -31 0
-11 -4 -7 -25 -29 0
-11 -4 -8 -25 -30 0
-11 -4 -9 -25 -31 0
-11 -4 -7 -26 -29 0
-11 -4 -8 -26 -30 0
-11 -4 -9 -26 -31 0
-11 -5 -7 -26 -29 0
-11 -5 -8 -26 -30 0
-11 -5 -9 -26 -31 0
-11 -5 -7 -27 -29 0
-11 -5 -8 -27 -30 0
-11 -5 -9 -27 -31 0
-11 -6 -7 -27 -29 0
-11 -6 -8 -27 -30 0
-11 -6 -9 -27 -31 0
-11 -1 -7 -33 -38 0
-11 -1 -8 -33 -39 0
-11 -1 -9 -33 -40 0
-11 -2 -7 -33 -38 0
-11 -2 -8 -33 -39 0
-11 -2 -9 -33 -40 0
-11 -2 -7 -34 -38 0
-11 -2 -8 -34 -39 0
-11 -2 -9 -34 -40 0
-11 -3 -7 -33 -38 0
-11 -3 -8 -33 -39 0
-11 -3 -9 -33 -40 0
-11 -3 -7 -34 -38 0
-11 -3 -8 -34 -39 0
-11 -3 -9 -34 -40 0
-11 -3 -7 -35 -38 0
-11 -3 -8 -35 -39 0
-11 -3 -9 -35 -40 0
-11 -4 -7 -34 -38 0
-11 -4 -8 -34 -39 0
-11 -4 -9 -34 -40 0
-11 -4 -7 -35 -38 0
-11 -4 -8 -35 -39 0
-11 -4 -9 -35 -40 0
-11 -4 -7 -36 -38 0
-11 -4 -8 -36 -39 0
-11 -4 -9 -36 -40 0
-11 -5 -7 -35 -38 0
-11 -5 -8 -35 -39 0
-11 -5 -9 -35 -40 0
-11 -5 -7 -36 -38 0
-11 -5 -8 -36 -39 0
-11 -5 -9 -36 -40 0
-11 -6 -7 -36 -38 0
-11 -6 -8 -36 -39 0
-11 -6 -9 -36 -40 0
-22 -12 -18 -1 -8 0
-22 -12 -19 -1 -9 0
-22 -12 -20 -1 -10 0
-22 -13 -18 -2 -8 0
-22 -13 -19 -2 -9 0
-22 -13 -20 -2 -10 0
-22 -14 -18 -3 -8 0
-22 -14 -19 -3 -9 0
-22 -14 -20 -3 -10 0
-22 -15 -18 -4 -8 0
-22 -15 -19 -4 -9 0
-22 -15 -20 -4 -10 0
-22 -16 -18 -5 -8 0
-22 -16 -19 -5 -9 0
-22 -16 -20 -5 -10 0
-22 -17 -18 -6 -8 0
-22 -17 -19 -6 -9 0
-22 -17 -20 -6 -10 0
-22 -12 -18 -23 -29 0
-22 -12 -19 -23 -30 0
-22 -12 -20 -23 -31 0
-22 -13 -18 -23 -29 0
-22 -13 -19 -23 -30 0
-22 -13 -20 -23 -31 0
-22 -13 -18 -24 -29 0
-22 -13 -19 -24 -30 0
-22 -13 -20 -24 -31 0
-22 -14 -18 -24 -29 0
-22 -14 -19 -24 -30 0
-22 -14 -20 -24 -31 0
-22 -14 -18 -25 -29 0
-22 -14 -19 -25 -30 0
-22 -14 -20 -25 -31 0
-22 -15 -18 -25 -29 0
-22 -15 -19 -25 -30 0
-22 -15 -20 -25 -31 0
-22 -15 -18 -26 -29 0
-22 -15 -19 -26 -30 0
-22 -15 -20 -26 -31 0
-22 -16 -18 -26 -29 0
-22 -16 -19 -26 -30 0
-22 -16 -20 -26 -31 0
-22 -16 -18 -27 -29 0
-22 -16 -19 -27 -30 0
-22 -16 -20 -27 -31 0
-22 -17 -18 -27 -29 0
-22 -17 -19 -27 -30 0
-22 -17 -20 -27 -31 0
-22 -12 -18 -33 -38 0
-22 -12 -19 -33 -39 0
-22 -12 -20 -33 -40 0
-22 -13 -18 -33 -38 0
-22 -13 -19 -33 -39 0
-22 -13 -20 -33 -40 0
-22 -13 -18 -34 -38 0
-22 -13 -19 -34 -39 0
-22 -13 -20 -34 -40 0
-22 -14 -18 -33 -38 0
-22 -14 -19 -33 -39 0
-22 -14 -20 -33 -40 0
-22 -14 -18 -34 -38 0
-22 -14 -19 -34 -39 0
-22 -14 -20 -34 -40 0
-22 -14 -18 -35 -38 0
-22 -14 -19 -35 -39 0
-22 -14 -20 -35 -40 0
-22 -15 -18 -34 -38 0
-22 -15 -19 -34 -39 0
-22 -15 -20 -34 -40 0
-22 -15 -18 -35 -38 0
-22 -15 -19 -35 -39 0
-22 -15 -20 -35 -40 0
-22 -15 -18 -36 -38 0
-22 -15 -19 -36 -39 0
-22 -15 -20 -36 -40 0
-22 -16 -18 -35 -38 0
-22 -16 -19 -35 -39 0
-22 -16 -20 -35 -40 0
-22 -16 -18 -36 -38 0
-22 -16 -19 -36 -39 0
-22 -16 -20 -36 -40 0
-22 -17 -18 -36 -38 0
-22 -17 -19 -36 -39 0
-22 -17 -20 -36 -40 0
-32 -23 -28 -1 -8 0
-32 -23 -29 -1 -9 0
-32 -23 -30 -1 -10 0
-32 -23 -28 -2 -8 0
-32 -23 -29 -2 -9 0
-32 -23 -30 -2 -10 0
-32 -24 -28 -2 -8 0
-32 -24 -29 -2 -9 0
-32 -24 -30 -2 -10 0
-32 -24 -28 -3 -8 0
-32 -24 -29 -3 -9 0
-32 -24 -30 -3 -10 0
-32 -25 -28 -3 -8 0
-32 -25 -29 -3 -9 0
-32 -25 -30 -3 -10 0
-32 -25 -28 -4 -8 0
-32 -25 -29 -4 -9 0
-32 -25 -30 -4 -10 0
-32 -26 -28 -4 -8 0
-32 -26 -29 -4 -9 0
-32 -26 -30 -4 -10 0
-32 -26 -28 -5 -8 0
-32 -26 -29 -5 -9 0
-32 -26 -30 -5 -10 0
-32 -27 -28 -5 -8 0
-32 -27 -29 -5 -9 0
-32 -27 -30 -5 -10 0
-32 -27 -28 -6 -8 0
-32 -27 -29 -6 -9 0
-32 -27 -30 -6 -10 0
-32 -23 -28 -12 -19 0
-32 -23 -29 -12 -20 0
-32 -23 -30 -12 -21 0
-32 -23 -28 -13 -19 0
-32 -23 -29 -13 -20 0
-32 -23 -30 -13 -21 0
-32 -24 -28 -13 -19 0
-32 -24 -29 -13 -20 0
-32 -24 -30 -13 -21 0
-32 -24 -28 -14 -19 0
-32 -24 -29 -14 -20 0
-32 -24 -30 -14 -21 0
-32 -25 -28 -14 -19 0
-32 -25 -29 -14 -20 0
-32 -25 -30 -14 -21 0
-32 -25 -28 -15 -19 0
-32 -25 -29 -15 -20 0
-32 -25 -30 -15 -21 0
-32 -26 -28 -15 -19 0
-32 -26 -29 -15 -20 0
-32 -26 -30 -15 -21 0
-32 -26 -28 -16 -19 0
-32 -26 -29 -16 -20 0
-32 -26 -30 -16 -21 0
-32 -27 -28 -16 -19 0
-32 -27 -29 -16 -20 0
-32 -27 -30 -16 -21 0
-32 -27 -28 -17 -19 0
-32 -27 -29 -17 -20 0
-32 -27 -30 -17 -21 0
-32 -23 -28 -33 -38 0
-32 -23 -29 -33 -39 0
-32 -23 -30 -33 -40 0
-32 -23 -28 -34 -38 0
-32 -23 -29 -34 -39 0
-32 -23 -30 -34 -40 0
-32 -24 -28 -33 -38 0
-32 -24 -29 -33 -39 0
-32 -24 -30 -33 -40 0
-32 -24 -28 -34 -38 0
-32 -24 -29 -34 -39 0
-32 -24 -30 -34 -40 0
-32 -24 -28 -35 -38 0
-32 -24 -29 -35 -39 0
-32 -24 -30 -35 -40 0
-32 -25 -28 -33 -38 0
-32 -25 -29 -33 -39 0
-32 -25 -30 -33 -40 0
-32 -25 -28 -34 -38 0
-32 -25 -29 -34 -39 0
-32 -25 -30 -34 -40 0
-32 -25 -28 -35 -38 0
-32 -25 -29 -35 -39 0
-32 -25 -30 -35 -40 0
-32 -25 -28 -36 -38 0
-32 -25 -29 -36 -39 0
-32 -25 -30 -36 -40 0
-32 -26 -28 -34 -38 0
-32 -26 -29 -34 -39 0
-32 -26 -30 -34 -40 0
-32 -26 -28 -35 -38 0
-32 -26 -29 -35 -39 0
-32 -26 -30 -35 -40 0
-32 -26 -28 -36 -38 0
-32 -26 -29 -36 -39 0
-32 -26 -30 -36 -40 0
-32 -27 -28 -35 -38 0
-32 -27 -29 -35 -39 0
-32 -27 -30 -35 -40 0
-32 -27 -28 -36 -38 0
-32 -27 -29 -36 -39 0
-32 -27 -30 -36 -40 0
-41 -33 -37 -1 -8 0
-41 -33 -38 -1 -9 0
-41 -33 -39 -1 -10 0
-41 -33 -37 -2 -8 0
-41 -33 -38 -2 -9 0
-41 -33 -39 -2 -10 0
-41 -33 -37 -3 -8 0
-41 -33 -38 -3 -9 0
-41 -33 -39 -3 -10 0
-41 -34 -37 -2 -8 0
-41 -34 -38 -2 -9 0
-41 -34 -39 -2 -10 0
-41 -34 -37 -3 -8 0
-41 -34 -38 -3 -9 0
-41 -34 -39 -3 -10 0
-41 -34 -37 -4 -8 0
-41 -34 -38 -4 -9 0
-41 -34 -39 -4 -10 0
-41 -35 -37 -3 -8 0
-41 -35 -38 -3 -9 0
-41 -35 -39 -3 -10 0
-41 -35 -37 -4 -8 0
-41 -35 -38 -4 -9 0
-41 -35 -39 -4 -10 0
-41 -35 -37 -5 -8 0
-41 -35 -38 -5 -9 0
-41 -35 -39 -5 -10 0
-41 -36 -37 -4 -8 0
-41 -36 -38 -4 -9 0
-41 -36 -39 -4 -10 0
-41 -36 -37 -5 -8 0
-41 -36 -38 -5 -9 0
-41 -36 -39 -5 -10 0
-41 -36 -37 -6 -8 0
-41 -36 -38 -6 -9 0
-41 -36 -39 -6 -10 0
-41 -33 -37 -12 -19 0
-41 -33 -38 -12 -20 0
-41 -33 -39 -12 -21 0
-41 -33 -37 -13 -19 0
-41 -33 -38 -13 -20 0
-41 -33 -39 -13 -21 0
-41 -33 -37 -14 -19 0
-41 -33 -38 -14 -20 0
-41 -33 -39 -14 -21 0
-41 -34 -37 -13 -19 0
-41 -34 -38 -13 -20 0
-41 -34 -39 -13 -21 0
-41 -34 -37 -14 -19 0
-41 -34 -38 -14 -20 0
-41 -34 -39 -14 -21 0
-41 -34 -37 -15 -19 0
-41 -34 -38 -15 -20 0
-41 -34 -39 -15 -21 0
-41 -35 -37 -14 -19 0
-41 -35 -38 -14 -20 0
-41 -35 -39 -14 -21 0
-41 -35 -37 -15 -19 0
-41 -35 -38 -15 -20 0
-41 -35 -39 -15 -21 0
-41 -35 -37 -16 -19 0
-41 -35 -38 -16 -20 0
-41 -35 -39 -16 -21 0
-41 -36 -37 -15 -19 0
-41 -36 -38 -15 -20 0
-41 -36 -39 -15 -21 0
-41 -36 -37 -16 -19 0
-41 -36 -38 -16 -20 0
-41 -36 -39 -16 -21 0
-41 -36 -37 -17 -19 0
-41 -36 -38 -17 -20 0
-41 -36 -39 -17 -21 0
-41 -33 -37 -23 -29 0
-41 -33 -38 -23 -30 0
-41 -33 -39 -23 -31 0
-41 -33 -37 -24 -29 0
-41 -33 -38 -24 -30 0
-41 -33 -39 -24 -31 0
-41 -33 -37 -25 -29 0
-41 -33 -38 -25 -30 0
-41 -33 -39 -25 -31 0
-41 -34 -37 -23 -29 0
-41 -34 -38 -23 -30 0
-41 -34 -39 -23 -31 0
-41 -34 -37 -24 -29 0
-41 -34 -38 -24 -30 0
-41 -34 -39 -24 -31 0
-41 -34 -37 -25 -29 0
-41 -34 -38 -25 -30 0
-41 -34 -39 -25 -31 0
-41 -34 -37 -26 -29 0
-41 -34 -38 -26 -30 0
-41 -34 -39 -26 -31 0
-41 -35 -37 -24 -29 0
-41 -35 -38 -24 -30 0
-41 -35 -39 -24 -31 0
-41 -35 -37 -25 -29 0
-41 -35 -38 -25 -30 0
-41 -35 -39 -25 -31 0
-41 -35 -37 -26 -29 0
-41 -35 -38 -26 -30 0
-41 -35 -39 -26 -31 0
-41 -35 -37 -27 -29 0
-41 -35 -38 -27 -30 0
-41 -35 -39 -27 -31 0
-41 -36 -37 -25 -29 0
-41 -36 -38 -25 -30 0
-41 -36 -39 -25 -31 0
-41 -36 -37 -26 -29 0
-41 -36 -38 -26 -30 0
-41 -36 -39 -26 -31 0
-41 -36 -37 -27 -29 0
-41 -36 -38 -27 -30 0
-41 -36 -39 -27 -31 0
42 43 44 45 46 47 0
-42 -43 0
-42 -44 0
-42 -45 0
-42 -46 0
-42 -47 0
-43 -44 0
-43 -45 0
-43 -46 0
-43 -47 0
-44 -45 0
-44 -46 0
-44 -47 0
-45 -46 0
-45 -47 0
-46 -47 0
48 49 50 51 0
-48 -49 0
-48 -50 0
-48 -51 0
-49 -50 0
-49 -51 0
-50 -51 0
53 54 55 56 57 58 0
-53 -54 0
-53 -55 0
-53 -56 0
-53 -57 0
-53 -58 0
-54 -55 0
-54 -56 0
-54 -57 0
-54 -58 0
-55 -56 0
-55 -57 0
-55 -58 0
-56 -57 0
-56 -58 0
-57 -58 0
59 60 61 62 0
-59 -60 0
-59 -61 0
-59 -62 0
-60 -61 0
-60 -62 0
-61 -62 0
64 65 66 67 68 0
-64 -65 0
-64 -66 0
-64 -67 0
-64 -68 0
-65 -66 0
-65 -67 0
-65 -68 0
-66 -67 0
-66 -68 0
-67 -68 0
69 70 71 72 0
-69 -70 0
-69 -71 0
-69 -72 0
-70 -71 0
-70 -72 0
-71 -72 0
74 75 76 77 0
-74 -75 0
-74 -76 0
-74 -77 0
-75 -76 0
-75 -77 0
-76 -77 0
78 79 80 81 0
-78 -79 0
-78 -80 0
-78 -81 0
-79 -80 0
-79 -81 0
-80 -81 0
-42 -48 -53 -59 0
-42 -49 -53 -60 0
-42 -50 -53 -61 0
-42 -51 -53 -62 0
-43 -48 -54 -59 0
-43 -49 -54 -60 0
-43 -50 -54 -61 0
-43 -51 -54 -62 0
-44 -48 -55 -59 0
-44 -49 -55 -60 0
-44 -50 -55 -61 0
-44 -51 -55 -62 0
-45 -48 -56 -59 0
-45 -49 -56 -60 0
-45 -50 -56 -61 0
-45 -51 -56 -62 0
-46 -48 -57 -59 0
-46 -49 -57 -60 0
-46 -50 -57 -61 0
-46 -51 -57 -62 0
-47 -48 -58 -59 0
-47 -49 -58 -60 0
-47 -50 -58 -61 0
-47 -51 -58 -62 0
-42 -48 -64 -69 0
-42 -49 -64 -70 0
-42 -50 -64 -71 0
-42 -51 -64 -72 0
-43 -48 -64 -69 0
-43 -49 -64 -70 0
-43 -50 -64 -71 0
-43 -51 -64 -72 0
-43 -48 -65 -69 0
-43 -49 -65 -70 0
-43 -50 -65 -71 0
-43 -51 -65 -72 0
-44 -48 -65 -69 0
-44 -49 -65 -70 0
-44 -50 -65 -71 0
-44 -51 -65 -72 0
-44 -48 -66 -69 0
-44 -49 -66 -70 0
-44 -50 -66 -71 0
-44 -51 -66 -72 0
-45 -48 -66 -69 0
-45 -49 -66 -70 0
-45 -50 -66 -71 0
-45 -51 -66 -72 0
-45 -48 -67 -69 0
-45 -49 -67 -70 0
-45 -50 -67 -71 0
-45 -51 -67 -72 0
-46 -48 -67 -69 0
-46 -49 -67 -70 0
-46 -50 -67 -71 0
-46 -51 -67 -72 0
-46 -48 -68 -69 0
-46 -49 -68 -70 0
-46 -50 -68 -71 0
-46 -51 -68 -72 0
-47 -48 -68 -69 0
-47 -49 -68 -70 0
-47 -50 -68 -71 0
-47 -51 -68 -72 0
-42 -48 -74 -78 0
-42 -49 -74 -79 0
-42 -50 -74 -80 0
-42 -51 -74 -81 0
-43 -48 -74 -78 0
-43 -49 -74 -79 0
-43 -50 -74 -80 0
-43 -51 -74 -81 0
-43 -48 -75 -78 0
-43 -49 -75 -79 0
-43 -50 -75 -80 0
-43 -51 -75 -81 0
-44 -48 -74 -78 0
-44 -49 -74 -79 0
-44 -50 -74 -80 0
-44 -51 -74 -81 0
-44 -48 -75 -78 0
-44 -49 -75 -79 0
-44 -50 -75 -80 0
-44 -51 -75 -81 0
-44 -48 -76 -78 0
-44 -49 -76 -79 0
-44 -50 -76 -80 0
-44 -51 -76 -81 0
-45 -48 -75 -78 0
-45 -49 -75 -79 0
-45 -50 -75 -80 0
-45 -51 -75 -81 0
-45 -48 -76 -78 0
-45 -49 -76 -79 0
-45 -50 -76 -80 0
-45 -51 -76 -81 0
-45 -48 -77 -78 0
-45 -49 -77 -79 0
-45 -50 -77 -80 0
-45 -51 -77 -81 0
-46 -48 -76 -78 0
-46 -49 -76 -79 0
-46 -50 -76 -80 0
-46 -51 -76 -81 0
-46 -48 -77 -78 0
-46 -49 -77 -79 0
-46 -50 -77 -80 0
-46 -51 -77 -81 0
-47 -48 -77 -78 0
-47 -49 -77 -79 0
-47 -50 -77 -80 0
-47 -51 -77 -81 0
-53 -59 -64 -69 0
-53 -60 -64 -70 0
-53 -61 -64 -71 0
-53 -62 -64 -72 0
-54 -59 -64 -69 0
-54 -60 -64 -70 0
-54 -61 -64 -71 0
-54 -62 -64 -72 0
-54 -59 -65 -69 0
-54 -60 -65 -70 0
-54 -61 -65 -71 0
-54 -62 -65 -72 0
-55 -59 -65 -69 0
-55 -60 -65 -70 0
-55 -61 -65 -71 0
-55 -62 -65 -72 0
-55 -59 -66 -69 0
-55 -60 -66 -70 0
-55 -61 -66 -71 0
-55 -62 -66 -72 0
-56 -59 -66 -69 0
-56 -60 -66 -70 0
-56 -61 -66 -71 0
-56 -62 -66 -72 0
-56 -59 -67 -69 0
-56 -60 -67 -70 0
-56 -61 -67 -71 0
-56 -62 -67 -72 0
-57 -59 -67 -69 0
-57 -60 -67 -70 0
-57 -61 -67 -71 0
-57 -62 -67 -72 0
-57 -59 -68 -69 0
-57 -60 -68 -70 0
-57 -61 -68 -71 0
-57 -62 -68 -72 0
-58 -59 -68 -69 0
-58 -60 -68 -70 0
-58 -61 -68 -71 0
-58 -62 -68 -72 0
-53 -59 -74 -78 0
-53 -60 -74 -79 0
-53 -61 -74 -80 0
-53 -62 -74 -81 0
-54 -59 -74 -78 0
-54 -60 -74 -79 0
-54 -61 -74 -80 0
-54 -62 -74 -81 0
-54 -59 -75 -78 0
-54 -60 -75 -79 0
-54 -61 -75 -80 0
-54 -62 -75 -81 0
-55 -59 -74 -78 0
-55 -60 -74 -79 0
-55 -61 -74 -80 0
-55 -62 -74 -81 0
-55 -59 -75 -78 0
-55 -60 -75 -79 0
-55 -61 -75 -80 0
-55 -62 -75 -81 0
-55 -59 -76 -78 0
-55 -60 -76 -79 0
-55 -61 -76 -80 0
-55 -62 -76 -81 0
-56 -59 -75 -78 0
-56 -60 -75 -79 0
-56 -61 -75 -80 0
-56 -62 -75 -81 0
-56 -59 -76 -78 0
-56 -60 -76 -79 0
-56 -61 -76 -80 0
-56 -62 -76 -81 0
-56 -59 -77 -78 0
-56 -60 -77 -79 0
-56 -61 -77 -80 0
-56 -62 -77 -81 0
-57 -59 -76 -78 0
-57 -60 -76 -79 0
-57 -61 -76 -80 0
-57 -62 -76 -81 0
-57 -59 -77 -78 0
-57 -60 -77 -79 0
-57 -61 -77 -80 0
-57 -62 -77 -81 0
-58 -59 -77 -78 0
-58 -60 -77 -79 0
-58 -61 -77 -80 0
-58 -62 -77 -81 0
-64 -69 -74 -78 0
-64 -70 -74 -79 0
-64 -71 -74 -80 0
-64 -72 -74 -81 0
-64 -69 -75 -78 0
-64 -70 -75 -79 0
-64 -71 -75 -80 0
-64 -72 -75 -81 0
-65 -69 -74 -78 0
-65 -70 -74 -79 0
-65 -71 -74 -80 0
-65 -72 -74 -81 0
-65 -69 -75 -78 0
-65 -70 -75 -79 0
-65 -71 -75 -80 0
-65 -72 -75 -81 0
-65 -69 -76 -78 0
-65 -70 -76 -79 0
-65 -71 -76 -80 0
-65 -72 -76 -81 0
-66 -69 -74 -78 0
-66 -70 -74 -79 0
-66 -71 -74 -80 0
-66 -72 -74 -81 0
-66 -69 -75 -78 0
-66 -70 -75 -79 0
-66 -71 -75 -80 0
-66 -72 -75 -81 0
-66 -69 -76 -78 0
-66 -70 -76 -79 0
-66 -71 -76 -80 0
-66 -72 -76 -81 0
-66 -69 -77 -78 0
-66 -70 -77 -79 0
-66 -71 -77 -80 0
-66 -72 -77 -81 0
-67 -69 -75 -78 0
-67 -70 -75 -79 0
-67 -71 -75 -80 0
-67 -72 -75 -81 0
-67 -69 -76 -78 0
-67 -70 -76 -79 0
-67 -71 -76 -80 0
-67 -72 -76 -81 0
-67 -69 -77 -78 0
-67 -70 -77 -79 0
-67 -71 -77 -80 0
-67 -72 -77 -81 0
-68 -69 -76 -78 0
-68 -70 -76 -79 0
-68 -71 -76 -80 0
-68 -72 -76 -81 0
-68 -69 -77 -78 0
-68 -70 -77 -79 0
-68 -71 -77 -80 0
-68 -72 -77 -81 0
-52 -42 -48 -53 -60 0
-52 -42 -49 -53 -61 0
-52 -42 -50 -53 -62 0
-52 -43 -48 -54 -60 0
-52 -43 -49 -54 -61 0
-52 -43 -50 -54 -62 0
-52 -44 -48 -55 -60 0
-52 -44 -49 -55 -61 0
-52 -44 -50 -55 -62 0
-52 -45 -48 -56 -60 0
-52 -45 -49 -56 -61 0
-52 -45 -50 -56 -62 0
-52 -46 -48 -57 -60 0
-52 -46 -49 -57 -61 0
-52 -46 -50 -57 -62 0
-52 -47 -48 -58 -60 0
-52 -47 -49 -58 -61 0
-52 -47 -50 -58 -62 0
-52 -42 -48 -64 -70 0
-52 -42 -49 -64 -71 0
-52 -42 -50 -64 -72 0
-52 -43 -48 -64 -70 0
-52 -43 -49 -64 -71 0
-52 -43 -50 -64 -72 0
-52 -43 -48 -65 -70 0
-52 -43 -49 -65 -71 0
-52 -43 -50 -65 -72 0
-52 -44 -48 -65 -70 0
-52 -44 -49 -65 -71 0
-52 -44 -50 -65 -72 0
-52 -44 -48 -66 -70 0
-52 -44 -49 -66 -71 0
-52 -44 -50 -66 -72 0
-52 -45 -48 -66 -70 0
-52 -45 -49 -66 -71 0
-52 -45 -50 -66 -72 0
-52 -45 -48 -67 -70 0
-52 -45 -49 -67 -71 0
-52 -45 -50 -67 -72 0
-52 -46 -48 -67 -70 0
-52 -46 -49 -67 -71 0
-52 -46 -50 -67 -72 0
-52 -46 -48 -68 -70 0
-52 -46 -49 -68 -71 0
-52 -46 -50 -68 -72 0
-52 -47 -48 -68 -70 0
-52 -47 -49 -68 -71 0
-52 -47 -50 -68 -72 0
-52 -42 -48 -74 -79 0
-52 -42 -49 -74 -80 0
-52 -42 -50 -74 -81 0
-52 -43 -48 -74 -79 0
-52 -43 -49 -74 -80 0
-52 -43 -50 -74 -81 0
-52 -43 -48 -75 -79 0
-52 -43 -49 -75 -80 0
-52 -43 -50 -75 -81 0
-52 -44 -48 -74 -79 0
-52 -44 -49 -74 -80 0
-52 -44 -50 -74 -81 0
-52 -44 -48 -75 -79 0
-52 -44 -49 -75 -80 0
-52 -44 -50 -75 -81 0
-52 -44 -48 -76 -79 0
-52 -44 -49 -76 -80 0
-52 -44 -50 -76 -81 0
-52 -45 -48 -75 -79 0
-52 -45 -49 -75 -80 0
-52 -45 -50 -75 -81 0
-52 -45 -48 -76 -79 0
-52 -45 -49 -76 -80 0
-52 -45 -50 -76 -81 0
-52 -45 -48 -77 -79 0
-52 -45 -49 -77 -80 0
-52 -45 -50 -77 -81 0
-52 -46 -48 -76 -79 0
-52 -46 -49 -76 -80 0
-52 -46 -50 -76 -81 0
-52 -46 -48 -77 -79 0
-52 -46 -49 -77 -80 0
-52 -46 -50 -77 -81 0
-52 -47 -48 -77 -79 0
-52 -47 -49 -77 -80 0
-52 -47 -50 -77 -81 0
-63 -53 -59 -42 -49 0
-63 -53 -60 -42 -50 0
-63 -53 -61 -42 -51 0
-63 -54 -59 -43 -49 0
-63 -54 -60 -43 -50 0
-63 -54 -61 -43 -51 0
-63 -55 -59 -44 -49 0
-63 -55 -60 -44 -50 0
-63 -55 -61 -44 -51 0
-63 -56 -59 -45 -49 0
-63 -56 -60 -45 -50 0
-63 -56 -61 -45 -51 0
-63 -57 -59 -46 -49 0
-63 -57 -60 -46 -50 0
-63 -57 -61 -46 -51 0
-63 -58 -59 -47 -49 0
-63 -58 -60 -47 -50 0
-63 -58 -61 -47 -51 0
-63 -53 -59 -64 -70 0
-63 -53 -60 -64 -71 0
-63 -53 -61 -64 -72 0
-63 -54 -59 -64 -70 0
-63 -54 -60 -64 -71 0
-63 -54 -61 -64 -72 0
-63 -54 -59 -65 -70 0
-63 -54 -60 -65 -71 0
-63 -54 -61 -65 -72 0
-63 -55 -59 -65 -70 0
-63 -55 -60 -65 -71 0
-63 -55 -61 -65 -72 0
-63 -55 -59 -66 -70 0
-63 -55 -60 -66 -71 0
-63 -55 -61 -66 -72 0
-63 -56 -59 -66 -70 0
-63 -56 -60 -66 -71 0
-63 -56 -61 -66 -72 0
-63 -56 -59 -67 -70 0
-63 -56 -60 -67 -71 0
-63 -56 -61 -67 -72 0
-63 -57 -59 -67 -70 0
-63 -57 -60 -67 -71 0
-63 -57 -61 -67 -72 0
-63 -57 -59 -68 -70 0
-63 -57 -60 -68 -71 0
-63 -57 -61 -68 -72 0
-63 -58 -59 -68 -70 0
-63 -58 -60 -68 -71 0
-63 -58 -61 -68 -72 0
-63 -53 -59 -74 -79 0
-63 -53 -60 -74 -80 0
-63 -53 -61 -74 -81 0
-63 -54 -59 -74 -79 0
-63 -54 -60 -74 -80 0
-63 -54 -61 -74 -81 0
-63 -54 -59 -75 -79 0
-63 -54 -60 -75 -80 0
-63 -54 -61 -75 -81 0
-63 -55 -59 -74 -79 0
-63 -55 -60 -74 -80 0
-63 -55 -61 -74 -81 0
-63 -55 -59 -75 -79 0
-63 -55 -60 -75 -80 0
-63 -55 -61 -75 -81 0
-63 -55 -59 -76 -79 0
-63 -55 -60 -76 -80 0
-63 -55 -61 -76 -81 0
-63 -56 -59 -75 -79 0
-63 -56 -60 -75 -80 0
-63 -56 -61 -75 -81 0
-63 -56 -59 -76 -79 0
-63 -56 -60 -76 -80 0
-63 -56 -61 -76 -81 0
-63 -56 -59 -77 -79 0
-63 -56 -60 -77 -80 0
-63 -56 -61 -77 -81 0
-63 -57 -59 -76 -79 0
-63 -57 -60 -76 -80 0
-63 -57 -61 -76 -81 0
-63 -57 -59 -77 -79 0
-63 -57 -60 -77 -80 0
-63 -57 -61 -77 -81 0
-63 -58 -59 -77 -79 0
-63 -58 -60 -77 -80 0
-63 -58 -61 -77 -81 0
-73 -64 -69 -42 -49 0
-73 -64 -70 -42 -50 0
-73 -64 -71 -42 -51 0
-73 -64 -69 -43 -49 0
-73 -64 -70 -43 -50 0
-73 -64 -71 -43 -51 0
-73 -65 -69 -43 -49 0
-73 -65 -70 -43 -50 0
-73 -65 -71 -43 -51 0
-73 -65 -69 -44 -49 0
-73 -65 -70 -44 -50 0
-73 -65 -71 -44 -51 0
-73 -66 -69 -44 -49 0
-73 -66 -70 -44 -50 0
-73 -66 -71 -44 -51 0
-73 -66 -69 -45 -49 0
-73 -66 -70 -45 -50 0
-73 -66 -71 -45 -51 0
-73 -67 -69 -45 -49 0
-73 -67 -70 -45 -50 0
-73 -67 -71 -45 -51 0
-73 -67 -69 -46 -49 0
-73 -67 -70 -46 -50 0
-73 -67 -71 -46 -51 0
-73 -68 -69 -46 -49 0
-73 -68 -70 -46 -50 0
-73 -68 -71 -46 -51 0
-73 -68 -69 -47 -49 0
-73 -68 -70 -47 -50 0
-73 -68 -71 -47 -51 0
-73 -64 -69 -53 -60 0
-73 -64 -70 -53 -61 0
-73 -64 -71 -53 -62 0
-73 -64 -69 -54 -60 0
-73 -64 -70 -54 -61 0
-73 -64 -71 -54 -62 0
-73 -65 -69 -54 -60 0
-73 -65 -70 -54 -61 0
-73 -65 -71 -54 -62 0
-73 -65 -69 -55 -60 0
-73 -65 -70 -55 -61 0
-73 -65 -71 -55 -62 0
-73 -66 -69 -55 -60 0
-73 -66 -70 -55 -61 0
-73 -66 -71 -55 -62 0
-73 -66 -69 -56 -60 0
-73 -66 -70 -56 -61 0
-73 -66 -71 -56 -62 0
-73 -67 -69 -56 -60 0
-73 -67 -70 -56 -61 0
-73 -67 -71 -56 -62 0
-73 -67 -69 -57 -60 0
-73 -67 -70 -57 -61 0
-73 -67 -71 -57 -62 0
-73 -68 -69 -57 -60 0
-73 -68 -70 -57 -61 0
-73 -68 -71 -57 -62 0
-73 -68 -69 -58 -60 0
-73 -68 -70 -58 -61 0
-73 -68 -71 -58 -62 0
-73 -64 -69 -74 -79 0
-73 -64 -70 -74 -80 0
-73 -64 -71 -74 -81 0
-73 -64 -69 -75 -79 0
-73 -64 -70 -75 -80 0
-73 -64 -71 -75 -81 0
-73 -65 -69 -74 -79 0
-73 -65 -70 -74 -80 0
-73 -65 -71 -74 -81 0
-73 -65 -69 -75 -79 0
-73 -65 -70 -75 -80 0
-73 -65 -71 -75 -81 0
-73 -65 -69 -76 -79 0
-73 -65 -70 -76 -80 0
-73 -65 -71 -76 -81 0
-73 -66 -69 -74 -79 0
-73 -66 -70 -74 -80 0
-73 -66 -71 -74 -81 0
-73 -66 -69 -75 -79 0
-73 -66 -70 -75 -80 0
-73 -66 -71 -75 -81 0
-73 -66 -69 -76 -79 0
-73 -66 -70 -76 -80 0
-73 -66 -71 -76 -81 0
-73 -66 -69 -77 -79 0
-73 -66 -70 -77 -80 0
-73 -66 -71 -77 -81 0
-73 -67 -69 -75 -79 0
-73 -67 -70 -75 -80 0
-73 -67 -71 -75 -81 0
-73 -67 -69 -76 -79 0
-73 -67 -70 -76 -80 0
-73 -67 -71 -76 -81 0
-73 -67 -69 -77 -79 0
-73 -67 -70 -77 -80 0
-73 -67 -71 -77 -81 0
-73 -68 -69 -76 -79 0
-73 -68 -70 -76 -80 0
-73 -68 -71 -76 -81 0
-73 -68 -69 -77 -79 0
-73 -68 -70 -77 -80 0
-73 -68 -71 -77 -81 0
-82 -74 -78 -42 -49 0
-82 -74 -79 -42 -50 0
-82 -74 -80 -42 -51 0
-82 -74 -78 -43 -49 0
-82 -74 -79 -43 -50 0
-82 -74 -80 -43 -51 0
-82 -74 -78 -44 -49 0
-82 -74 -79 -44 -50 0
-82 -74 -80 -44 -51 0
-82 -75 -78 -43 -49 0
-82 -75 -79 -43 -50 0
-82 -75 -80 -43 -51 0
-82 -75 -78 -44 -49 0
-82 -75 -79 -44 -50 0
-82 -75 -80 -44 -51 0
-82 -75 -78 -45 -49 0
-82 -75 -79 -45 -50 0
-82 -75 -80 -45 -51 0
-82 -76 -78 -44 -49 0
-82 -76 -79 -44 -50 0
-82 -76 -80 -44 -51 0
-82 -76 -78 -45 -49 0
-82 -76 -79 -45 -50 0
-82 -76 -80 -45 -51 0
-82 -76 -78 -46 -49 0
-82 -76 -79 -46 -50 0
-82 -76 -80 -46 -51 0
-82 -77 -78 -45 -49 0
-82 -77 -79 -45 -50 0
-82 -77 -80 -45 -51 0
-82 -77 -78 -46 -49 0
-82 -77 -79 -46 -50 0
-82 -77 -80 -46 -51 0
-82 -77 -78 -47 -49 0
-82 -77 -79 -47 -50 0
-82 -77 -80 -47 -51 0
-82 -74 -78 -53 -60 0
-82 -74 -79 -53 -61 0
-82 -74 -80 -53 -62 0
-82 -74 -78 -54 -60 0
-82 -74 -79 -54 -61 0
-82 -74 -80 -54 -62 0
-82 -74 -78 -55 -60 0
-82 -74 -79 -55 -61 0
-82 -74 -80 -55 -62 0
-82 -75 -78 -54 -60 0
-82 -75 -79 -54 -61 0
-82 -75 -80 -54 -62 0
-82 -75 -78 -55 -60 0
-82 -75 -79 -55 -61 0
-82 -75 -80 -55 -62 0
-82 -75 -78 -56 -60 0
-82 -75 -79 -56 -61 0
-82 -75 -80 -56 -62 0
-82 -76 -78 -55 -60 0
-82 -76 -79 -55 -61 0
-82 -76 -80 -55 -62 0
-82 -76 -78 -56 -60 0
-82 -76 -79 -56 -61 0
-82 -76 -80 -56 -62 0
-82 -76 -78 -57 -60 0
-82 -76 -79 -57 -61 0
-82 -76 -80 -57 -62 0
-82 -77 -78 -56 -60 0
-82 -77 -79 -56 -61 0
-82 -77 -80 -56 -62 0
-82 -77 -78 -57 -60 0
-82 -77 -79 -57 -61 0
-82 -77 -80 -57 -62 0
-82 -77 -78 -58 -60 0
-82 -77 -79 -58 -61 0
-82 -77 -80 -58 -62 0
-82 -74 -78 -64 -70 0
-82 -74 -79 -64 -71 0
-82 -74 -80 -64 -72 0
-82 -74 -78 -65 -70 0
-82 -74 -79 -65 -71 0
-82 -74 -80 -65 -72 0
-82 -74 -78 -66 -70 0
-82 -74 -79 -66 -71 0
-82 -74 -80 -66 -72 0
-82 -75 -78 -64 -70 0
-82 -75 -79 -64 -71 0
-82 -75 -80 -64 -72 0
-82 -75 -78 -65 -70 0
-82 -75 -79 -65 -71 0
-82 -75 -80 -65 -72 0
-82 -75 -78 -66 -70 0
-82 -75 -79 -66 -71 0
-82 -75 -80 -66 -72 0
-82 -75 -78 -67 -70 0
-82 -75 -79 -67 -71 0
-82 -75 -80 -67 -72 0
-82 -76 -78 -65 -70 0
-82 -76 -79 -65 -71 0
-82 -76 -80 -65 -72 0
-82 -76 -78 -66 -70 0
-82 -76 -79 -66 -71 0
-82 -76 -80 -66 -72 0
-82 -76 -78 -67 -70 0
-82 -76 -79 -67 -71 0
-82 -76 -80 -67 -72 0
-82 -76 -78 -68 -70 0
-82 -76 -79 -68 -71 0
-82 -76 -80 -68 -72 0
-82 -77 -78 -66 -70 0
-82 -77 -79 -66 -71 0
-82 -77 -80 -66 -72 0
-82 -77 -78 -67 -70 0
-82 -77 -79 -67 -71 0
-82 -77 -80 -67 -72 0
-82 -77 -78 -68 -70 0
-82 -77 -79 -68 -71 0
-82 -77 -80 -68 -72 0
83 84 85 86 87 88 0
-83 -84 0
-83 -85 0
-83 -86 0
-83 -87 0
-83 -88 0
-84 -85 0
-84 -86 0
-84 -87 0
-84 -88 0
-85 -86 0
-85 -87 0
-85 -88 0
-86 -87 0
-86 -88 0
-87 -88 0
89 90 91 92 0
-89 -90 0
-89 -91 0
-89 -92 0
-90 -91 0
-90 -92 0
-91 -92 0
94 95 96 97 98 99 0
-94 -95 0
-94 -96 0
-94 -97 0
-94 -98 0
-94 -99 0
-95 -96 0
-95 -97 0
-95 -98 0
-95 -99 0
-96 -97 0
-96 -98 0
-96 -99 0
-97 -98 0
-97 -99 0
-98 -99 0
100 101 102 103 0
-100 -101 0
-100 -102 0
-100 -103 0
-101 -102 0
-101 -103 0
-102 -103 0
105 106 107 108 109 0
-105 -106 0
-105 -107 0
-105 -108 0
-105 -109 0
-106 -107 0
-106 -108 0
-106 -109 0
-107 -108 0
-107 -109 0
-108 -109 0
110 111 112 113 0
-110 -111 0
-110 -112 0
-110 -113 0
-111 -112 0
-111 -113 0
-112 -113 0
115 116 117 118 0
-115 -116 0
-115 -117 0
-115 -118 0
-116 -117 0
-116 -118 0
-117 -118 0
119 120 121 122 0
-119 -120 0
-119 -121 0
-119 -122 0
-120 -121 0
-120 -122 0
-121 -122 0
-83 -89 -94 -100 0
-83 -90 -94 -101 0
-83 -91 -94 -102 0
-83 -92 -94 -103 0
-84 -89 -95 -100 0
-84 -90 -95 -101 0
-84 -91 -95 -102 0
-84 -92 -95 -103 0
-85 -89 -96 -100 0
-85 -90 -96 -101 0
-85 -91 -96 -102 0
-85 -92 -96 -103 0
-86 -89 -97 -100 0
-86 -90 -97 -101 0
-86 -91 -97 -102 0
-86 -92 -97 -103 0
-87 -89 -98 -100 0
-87 -90 -98 -101 0
-87 -91 -98 -102 0
-87 -92 -98 -103 0
-88 -89 -99 -100 0
-88 -90 -99 -101 0
-88 -91 -99 -102 0
-88 -92 -99 -103 0
-83 -89 -105 -110 0
-83 -90 -105 -111 0
-83 -91 -105 -112 0
-83 -92 -105 -113 0
-84 -89 -105 -110 0
-84 -90 -105 -111 0
-84 -91 -105 -112 0
-84 -92 -105 -113 0
-84 -89 -106 -110 0
-84 -90 -106 -111 0
-84 -91 -106 -112 0
-84 -92 -106 -113 0
-85 -89 -106 -110 0
-85 -90 -106 -111 0
-85 -91 -106 -112 0
-85 -92 -106 -113 0
-85 -89 -107 -110 0
-85 -90 -107 -111 0
-85 -91 -107 -112 0
-85 -92 -107 -113 0
-86 -89 -107 -110 0
-86 -90 -107 -111 0
-86 -91 -107 -112 0
-86 -92 -107 -113 0
-86 -89 -108 -110 0
-86 -90 -108 -111 0
-86 -91 -108 -112 0
-86 -92 -108 -113 0
-87 -89 -108 -110 0
-87 -90 -108 -111 0
-87 -91 -108 -112 0
-87 -92 -108 -113 0
-87 -89 -109 -110 0
-87 -90 -109 -111 0
-87 -91 -109 -112 0
-87 -92 -109 -113 0
-88 -89 -109 -110 0
-88 -90 -109 -111 0
-88 -91 -109 -112 0
-88 -92 -109 -113 0
-83 -89 -115 -119 0
-83 -90 -115 -120 0
-83 -91 -115 -121 0
-83 -92 -115 -122 0
-84 -89 -115 -119 0
-84 -90 -115 -120 0
-84 -91 -115 -121 0
-84 -92 -115 -122 0
-84 -89 -116 -119 0
-84 -90 -116 -120 0
-84 -91 -116 -121 0
-84 -92 -116 -122 0
-85 -89 -115 -119 0
-85 -90 -115 -120 0
-85 -91 -115 -121 0
-85 -92 -115 -122 0
-85 -89 -116 -119 0
-85 -90 -116 -120 0
-85 -91 -116 -121 0
-85 -92 -116 -122 0
-85 -89 -117 -119 0
-85 -90 -117 -120 0
-85 -91 -117 -121 0
-85 -92 -117 -122 0
-86 -89 -116 -119 0
-86 -90 -116 -120 0
-86 -91 -116 -121 0
-86 -92 -116 -122 0
-86 -89 -117 -119 0
-86 -90 -117 -120 0
-86 -91 -117 -121 0
-86 -92 -117 -122 0
-86 -89 -118 -119 0
-86 -90 -118 -120 0
-86 -91 -118 -121 0
-86 -92 -118 -122 0
-87 -89 -117 -119 0
-87 -90 -117 -120 0
-87 -91 -117 -121 0
-87 -92 -117 -122 0
-87 -89 -118 -119 0
-87 -90 -118 -120 0
-87 -91 -118 -121 0
-87 -92 -118 -122 0
-88 -89 -118 -119 0
-88 -90 -118 -120 0
-88 -91 -118 -121 0
-88 -92 -118 -122 0
-94 -100 -105 -110 0
-94 -101 -105 -111 0
-94 -102 -105 -112 0
-94 -103 -105 -113 0
-95 -100 -105 -110 0
-95 -101 -105 -111 0
-95 -102 -105 -112 0
-95 -103 -105 -113 0
-95 -100 -106 -110 0
-95 -101 -106 -111 0
-95 -102 -106 -112 0
-95 -103 -106 -113 0
-96 -100 -106 -110 0
-96 -101 -106 -111 0
-96 -102 -106 -112 0
-96 -103 -106 -113 0
-96 -100 -107 -110 0
-96 -101 -107 -111 0
-96 -102 -107 -112 0
-96 -103 -107 -113 0
-97 -100 -107 -110 0
-97 -101 -107 -111 0
-97 -102 -107 -112 0
-97 -103 -107 -113 0
-97 -100 -108 -110 0
-97 -101 -108 -111 0
-97 -102 -108 -112 0
-97 -103 -108 -113 0
-98 -100 -108 -110 0
-98 -101 -108 -111 0
-98 -102 -108 -112 0
-98 -103 -108 -113 0
-98 -100 -109 -110 0
-98 -101 -109 -111 0
-98 -102 -109 -112 0
-98 -103 -109 -113 0
-99 -100 -109 -110 0
-99 -101 -109 -111 0
-99 -102 -109 -112 0
-99 -103 -109 -113 0
-94 -100 -115 -119 0
-94 -101 -115 -120 0
-94 -102 -115 -121 0
-94 -103 -115 -122 0
-95 -100 -115 -119 0
-95 -101 -115 -120 0
-95 -102 -115 -121 0
-95 -103 -115 -122 0
-95 -100 -116 -119 0
-95 -101 -116 -120 0
-95 -102 -116 -121 0
-95 -103 -116 -122 0
-96 -100 -115 -119 0
-96 -101 -115 -120 0
-96 -102 -115 -121 0
-96 -103 -115 -122 0
-96 -100 -116 -119 0
-96 -101 -116 -120 0
-96 -102 -116 -121 0
-96 -103 -116 -122 0
-96 -100 -117 -119 0
-96 -101 -117 -120 0
-96 -102 -117 -121 0
-96 -103 -117 -122 0
-97 -100 -116 -119 0
-97 -101 -116 -120 0
-97 -102 -116 -121 0
-97 -103 -116 -122 0
-97 -100 -117 -119 0
-97 -101 -117 -120 0
-97 -102 -117 -121 0
-97 -103 -117 -122 0
-97 -100 -118 -119 0
-97 -101 -118 -120 0
-97 -102 -118 -121 0
-97 -103 -118 -122 0
-98 -100 -117 -119 0
-98 -101 -117 -120 0
-98 -102 -117 -121 0
-98 -103 -117 -122 0
-98 -100 -118 -119 0
-98 -101 -118 -120 0
-98 -102 -118 -121 0
-98 -103 -118 -122 0
-99 -100 -118 -119 0
-99 -101 -118 -120 0
-99 -102 -118 -121 0
-99 -103 -118 -122 0
-105 -110 -115 -119 0
-105 -111 -115 -120 0
-105 -112 -115 -121 0
-105 -113 -115 -122 0
-105 -110 -116 -119 0
-105 -111 -116 -120 0
-105 -112 -116 -121 0
-105 -113 -116 -122 0
-106 -110 -115 -119 0
-106 -111 -115 -120 0
-106 -112 -115 -121 0
-106 -113 -115 -122 0
-106 -110 -116 -119 0
-106 -111 -116 -120 0
-106 -112 -116 -121 0
-106 -113 -116 -122 0
-106 -110 -117 -119 0
-106 -111 -117 -120 0
-106 -112 -117 -121 0
-106 -113 -117 -122 0
-107 -110 -115 -119 0
-107 -111 -115 -120 0
-107 -112 -115 -121 0
-107 -113 -115 -122 0
-107 -110 -116 -119 0
-107 -111 -116 -120 0
-107 -112 -116 -121 0
-107 -113 -116 -122 0
-107 -110 -117 -119 0
-107 -111 -117 -120 0
-107 -112 -117 -121 0
-107 -113 -117 -122 0
-107 -110 -118 -119 0
-107 -111 -118 -120 0
-107 -112 -118 -121 0
-107 -113 -118 -122 0
-108 -110 -116 -119 0
-108 -111 -116 -120 0
-108 -112 -116 -121 0
-108 -113 -116 -122 0
-108 -110 -117 -119 0
-108 -111 -117 -120 0
-108 -112 -117 -121 0
-108 -113 -117 -122 0
-108 -110 -118 -119 0
-108 -111 -118 -120 0
-108 -112 -118 -121 0
-108 -113 -118 -122 0
-109 -110 -117 -119 0
-109 -111 -117 -120 0
-109 -112 -117 -121 0
-109 -113 -117 -122 0
-109 -110 -118 -119 0
-109 -111 -118 -120 0
-109 -112 -118 -121 0
-109 -113 -118 -122 0
-93 -83 -89 -94 -101 0
-93 -83 -90 -94 -102 0
-93 -83 -91 -94 -103 0
-93 -84 -89 -95 -101 0
-93 -84 -90 -95 -102 0
-93 -84 -91 -95 -103 0
-93 -85 -89 -96 -101 0
-93 -85 -90 -96 -102 0
-93 -85 -91 -96 -103 0
-93 -86 -89 -97 -101 0
-93 -86 -90 -97 -102 0
-93 -86 -91 -97 -103 0
-93 -87 -89 -98 -101 0
-93 -87 -90 -98 -102 0
-93 -87 -91 -98 -103 0
-93 -88 -89 -99 -101 0
-93 -88 -90 -99 -102 0
-93 -88 -91 -99 -103 0
-93 -83 -89 -105 -111 0
-93 -83 -90 -105 -112 0
-93 -83 -91 -105 -113 0
-93 -84 -89 -105 -111 0
-93 -84 -90 -105 -112 0
-93 -84 -91 -105 -113 0
-93 -84 -89 -106 -111 0
-93 -84 -90 -106 -112 0
-93 -84 -91 -106 -113 0
-93 -85 -89 -106 -111 0
-93 -85 -90 -106 -112 0
-93 -85 -91 -106 -113 0
-93 -85 -89 -107 -111 0
-93 -85 -90 -107 -112 0
-93 -85 -91 -107 -113 0
-93 -86 -89 -107 -111 0
-93 -86 -90 -107 -112 0
-93 -86 -91 -107 -113 0
-93 -86 -89 -108 -111 0
-93 -86 -90 -108 -112 0
-93 -86 -91 -108 -113 0
-93 -87 -89 -108 -111 0
-93 -87 -90 -108 -112 0
-93 -87 -91 -108 -113 0
-93 -87 -89 -109 -111 0
-93 -87 -90 -109 -112 0
-93 -87 -91 -109 -113 0
-93 -88 -89 -109 -111 0
-93 -88 -90 -109 -112 0
-93 -88 -91 -109 -113 0
-93 -83 -89 -115 -120 0
-93 -83 -90 -115 -121 0
-93 -83 -91 -115 -122 0
-93 -84 -89 -115 -120 0
-93 -84 -90 -115 -121 0
-93 -84 -91 -115 -122 0
-93 -84 -89 -116 -120 0
-93 -84 -90 -116 -121 0
-93 -84 -91 -116 -122 0
-93 -85 -89 -115 -120 0
-93 -85 -90 -115 -121 0
-93 -85 -91 -115 -122 0
-93 -85 -89 -116 -120 0
-93 -85 -90 -116 -121 0
-93 -85 -91 -116 -122 0
-93 -85 -89 -117 -120 0
-93 -85 -90 -117 -121 0
-93 -85 -91 -117 -122 0
-93 -86 -89 -116 -120 0
-93 -86 -90 -116 -121 0
-93 -86 -91 -116 -122 0
-93 -86 -89 -117 -120 0
-93 -86 -90 -117 -121 0
-93 -86 -91 -117 -122 0
-93 -86 -89 -118 -120 0
-93 -86 -90 -118 -121 0
-93 -86 -91 -118 -122 0
-93 -87 -89 -117 -120 0
-93 -87 -90 -117 -121 0
-93 -87 -91 -117 -122 0
-93 -87 -89 -118 -120 0
-93 -87 -90 -118 -121 0
-93 -87 -91 -118 -122 0
-93 -88 -89 -118 -120 0
-93 -88 -90 -118 -121 0
-93 -88 -91 -118 -122 0
-104 -94 -100 -83 -90 0
-104 -94 -101 -83 -91 0
-104 -94 -102 -83 -92 0
-104 -95 -100 -84 -90 0
-104 -95 -101 -84 -91 0
-104 -95 -102 -84 -92 0
-104 -96 -100 -85 -90 0
-104 -96 -101 -85 -91 0
-104 -96 -102 -85 -92 0
-104 -97 -100 -86 -90 0
-104 -97 -101 -86 -91 0
-104 -97 -102 -86 -92 0
-104 -98 -100 -87 -90 0
-104 -98 -101 -87 -91 0
-104 -98 -102 -87 -92 0
-104 -99 -100 -88 -90 0
-104 -99 -101 -88 -91 0
-104 -99 -102 -88 -92 0
-104 -94 -100 -105 -111 0
-104 -94 -101 -105 -112 0
-104 -94 -102 -105 -113 0
-104 -95 -100 -105 -111 0
-104 -95 -101 -105 -112 0
-104 -95 -102 -105 -113 0
-104 -95 -100 -106 -111 0
-104 -95 -101 -106 -112 0
-104 -95 -102 -106 -113 0
-104 -96 -100 -106 -111 0
-104 -96 -101 -106 -112 0
-104 -96 -102 -106 -113 0
-104 -96 -100 -107 -111 0
-104 -96 -101 -107 -112 0
-104 -96 -102 -107 -113 0
-104 -97 -100 -107 -111 0
-104 -97 -101 -107 -112 0
-104 -97 -102 -107 -113 0
-104 -97 -100 -108 -111 0
-104 -97 -101 -108 -112 0
-104 -97 -102 -108 -113 0
-104 -98 -100 -108 -111 0
-104 -98 -101 -108 -112 0
-104 -98 -102 -108 -113 0
-104 -98 -100 -109 -111 0
-104 -98 -101 -109 -112 0
-104 -98 -102 -109 -113 0
-104 -99 -100 -109 -111 0
-104 -99 -101 -109 -112 0
-104 -99 -102 -109 -113 0
-104 -94 -100 -115 -120 0
-104 -94 -101 -115 -121 0
-104 -94 -102 -115 -122 0
-104 -95 -100 -115 -120 0
-104 -95 -101 -115 -121 0
-104 -95 -102 -115 -122 0
-104 -95 -100 -116 -120 0
-104 -95 -101 -116 -121 0
-104 -95 -102 -116 -122 0
-104 -96 -100 -115 -120 0
-104 -96 -101 -115 -121 0
-104 -96 -102 -115 -122 0
-104 -96 -100 -116 -120 0
-104 -96 -101 -116 -121 0
-104 -96 -102 -116 -122 0
-104 -96 -100 -117 -120 0
-104 -96 -101 -117 -121 0
-104 -96 -102 -117 -122 0
-104 -97 -100 -116 -120 0
-104 -97 -101 -116 -121 0
-104 -97 -102 -116 -122 0
-104 -97 -100 -117 -120 0
-104 -97 -101 -117 -121 0
-104 -97 -102 -117 -122 0
-104 -97 -100 -118 -120 0
-104 -97 -101 -118 -121 0
-104 -97 -102 -118 -122 0
-104 -98 -100 -117 -120 0
-104 -98 -101 -117 -121 0
-104 -98 -102 -117 -122 0
-104 -98 -100 -118 -120 0
-104 -98 -101 -118 -121 0
-104 -98 -102 -118 -122 0
-104 -99 -100 -118 -120 0
-104 -99 -101 -118 -121 0
-104 -99 -102 -118 -122 0
-114 -105 -110 -83 -90 0
-114 -105 -111 -83 -91 0
-114 -105 -112 -83 -92 0
-114 -105 -110 -84 -90 0
-114 -105 -111 -84 -91 0
-114 -105 -112 -84 -92 0
-114 -106 -110 -84 -90 0
-114 -106 -111 -84 -91 0
-114 -106 -112 -84 -92 0
-114 -106 -110 -85 -90 0
-114 -106 -111 -85 -91 0
-114 -106 -112 -85 -92 0
-114 -107 -110 -85 -90 0
-114 -107 -111 -85 -91 0
-114 -107 -112 -85 -92 0
-114 -107 -110 -86 -90 0
-114 -107 -111 -86 -91 0
-114 -107 -112 -86 -92 0
-114 -108 -110 -86 -90 0
-114 -108 -111 -86 -91 0
-114 -108 -112 -86 -92 0
-114 -108 -110 -87 -90 0
-114 -108 -111 -87 -91 0
-114 -108 -112 -87 -92 0
-114 -109 -110 -87 -90 0
-114 -109 -111 -87 -91 0
-114 -109 -112 -87 -92 0
-114 -109 -110 -88 -90 0
-114 -109 -111 -88 -91 0
-114 -109 -112 -88 -92 0
-114 -105 -110 -94 -101 0
-114 -105 -111 -94 -102 0
-114 -105 -112 -94 -103 0
-114 -105 -110 -95 -101 0
-114 -105 -111 -95 -102 0
-114 -105 -112 -95 -103 0
-114 -106 -110 -95 -101 0
-114 -106 -111 -95 -102 0
-114 -106 -112 -95 -103 0
-114 -106 -110 -96 -101 0
-114 -106 -111 -96 -102 0
-114 -106 -112 -96 -103 0
-114 -107 -110 -96 -101 0
-114 -107 -111 -96 -102 0
-114 -107 -112 -96 -103 0
-114 -107 -110 -97 -101 0
-114 -107 -111 -97 -102 0
-114 -107 -112 -97 -103 0
-114 -108 -110 -97 -101 0
-114 -108 -111 -97 -102 0
-114 -108 -112 -97 -103 0
-114 -108 -110 -98 -101 0
-114 -108 -111 -98 -102 0
-114 -108 -112 -98 -103 0
-114 -109 -110 -98 -101 0
-114 -109 -111 -98 -102 0
-114 -109 -112 -98 -103 0
-114 -109 -110 -99 -101 0
-114 -109 -111 -99 -102 0
-114 -109 -112 -99 -103 0
-114 -105 -110 -115 -120 0
-114 -105 -111 -115 -121 0
-114 -105 -112 -115 -122 0
-114 -105 -110 -116 -120 0
-114 -105 -111 -116 -121 0
-114 -105 -112 -116 -122 0
-114 -106 -110 -115 -120 0
-114 -106 -111 -115 -121 0
-114 -106 -112 -115 -122 0
-114 -106 -110 -116 -120 0
-114 -106 -111 -116 -121 0
-114 -106 -112 -116 -122 0
-114 -106 -110 -117 -120 0
-114 -106 -111 -117 -121 0
-114 -106 -112 -117 -122 0
-114 -107 -110 -115 -120 0
-114 -107 -111 -115 -121 0
-114 -107 -112 -115 -122 0
-114 -107 -110 -116 -120 0
-114 -107 -111 -116 -121 0
-114 -107 -112 -116 -122 0
-114 -107 -110 -117 -120 0
-114 -107 -111 -117 -121 0
-114 -107 -112 -117 -122 0
-114 -107 -110 -118 -120 0
-114 -107 -111 -118 -121 0
-114 -107 -112 -118 -122 0
-114 -108 -110 -116 -120 0
-114 -108 -111 -116 -121 0
-114 -108 -112 -116 -122 0
-114 -108 -110 -117 -120 0
-114 -108 -111 -117 -121 0
-114 -108 -112 -117 -122 0
-114 -108 -110 -118 -120 0
-114 -108 -111 -118 -121 0
-114 -108 -112 -118 -122 0
-114 -109 -110 -117 -120 0
-114 -109 -111 -117 -121 0
-114 -109 -112 -117 -122 0
-114 -109 -110 -118 -120 0
-114 -109 -111 -118 -121 0
-114 -109 -112 -118 -122 0
-123 -115 -119 -83 -90 0
-123 -115 -120 -83 -91 0
-123 -115 -121 -83 -92 0
-123 -115 -119 -84 -90 0
-123 -115 -120 -84 -91 0
-123 -115 -121 -84 -92 0
-123 -115 -119 -85 -90 0
-123 -115 -120 -85 -91 0
-123 -115 -121 -85 -92 0
-123 -116 -119 -84 -90 0
-123 -116 -120 -84 -91 0
-123 -116 -121 -84 -92 0
-123 -116 -119 -85 -90 0
-123 -116 -120 -85 -91 0
-123 -116 -121 -85 -92 0
-123 -116 -119 -86 -90 0
-123 -116 -120 -86 -91 0
-123 -116 -121 -86 -92 0
-123 -117 -119 -85 -90 0
-123 -117 -120 -85 -91 0
-123 -117 -121 -85 -92 0
-123 -117 -119 -86 -90 0
-123 -117 -120 -86 -91 0
-123 -117 -121 -86 -92 0
-123 -117 -119 -87 -90 0
-123 -117 -120 -87 -91 0
-123 -117 -121 -87 -92 0
-123 -118 -119 -86 -90 0
-123 -118 -120 -86 -91 0
-123 -118 -121 -86 -92 0
-123 -118 -119 -87 -90 0
-123 -118 -120 -87 -91 0
-123 -118 -121 -87 -92 0
-123 -118 -119 -88 -90 0
-123 -118 -120 -88 -91 0
-123 -118 -121 -88 -92 0
-123 -115 -119 -94 -101 0
-123 -115 -120 -94 -102 0
-123 -115 -121 -94 -103 0
-123 -115 -119 -95 -101 0
-123 -115 -120 -95 -102 0
-123 -115 -121 -95 -103 0
-123 -115 -119 -96 -101 0
-123 -115 -120 -96 -102 0
-123 -115 -121 -96 -103 0
-123 -116 -119 -95 -101 0
-123 -116 -120 -95 -102 0
-123 -116 -121 -95 -103 0
-123 -116 -119 -96 -101 0
-123 -116 -120 -96 -102 0
-123 -116 -121 -96 -103 0
-123 -116 -119 -97 -101 0
-123 -116 -120 -97 -102 0
-123 -116 -121 -97 -103 0
-123 -117 -119 -96 -101 0
-123 -117 -120 -96 -102 0
-123 -117 -121 -96 -103 0
-123 -117 -119 -97 -101 0
-123 -117 -120 -97 -102 0
-123 -117 -121 -97 -103 0
-123 -117 -119 -98 -101 0
-123 -117 -120 -98 -102 0
-123 -117 -121 -98 -103 0
-123 -118 -119 -97 -101 0
-123 -118 -120 -97 -102 0
-123 -118 -121 -97 -103 0
-123 -118 -119 -98 -101 0
-123 -118 -120 -98 -102 0
-123 -118 -121 -98 -103 0
-123 -118 -119 -99 -101 0
-123 -118 -120 -99 -102 0
-123 -118 -121 -99 -103 0
-123 -115 -119 -105 -111 0
-123 -115 -120 -105 -112 0
-123 -115 -121 -105 -113 0
-123 -115 -119 -106 -111 0
-123 -115 -120 -106 -112 0
-123 -115 -121 -106 -113 0
-123 -115 -119 -107 -111 0
-123 -115 -120 -107 -112 0
-123 -115 -121 -107 -113 0
-123 -116 -119 -105 -111 0
-123 -116 -120 -105 -112 0
-123 -116 -121 -105 -113 0
-123 -116 -119 -106 -111 0
-123 -116 -120 -106 -112 0
-123 -116 -121 -106 -113 0
-123 -116 -119 -107 -111 0
-123 -116 -120 -107 -112 0
-123 -116 -121 -107 -113 0
-123 -116 -119 -108 -111 0
-123 -116 -120 -108 -112 0
-123 -116 -121 -108 -113 0
-123 -117 -119 -106 -111 0
-123 -117 -120 -106 -112 0
-123 -117 -121 -106 -113 0
-123 -117 -119 -107 -111 0
-123 -117 -120 -107 -112 0
-123 -117 -121 -107 -113 0
-123 -117 -119 -108 -111 0
-123 -117 -120 -108 -112 0
-123 -117 -121 -108 -113 0
-123 -117 -119 -109 -111 0
-123 -117 -120 -109 -112 0
-123 -117 -121 -109 -113 0
-123 -118 -119 -107 -111 0
-123 -118 -120 -107 -112 0
-123 -118 -121 -107 -113 0
-123 -118 -119 -108 -111 0
-123 -118 -120 -108 -112 0
-123 -118 -121 -108 -113 0
-123 -118 -119 -109 -111 0
-123 -118 -120 -109 -112 0
-123 -118 -121 -109 -113 0
124 125 126 127 128 129 0
-124 -125 0
-124 -126 0
-124 -127 0
-124 -128 0
-124 -129 0
-125 -126 0
-125 -127 0
-125 -128 0
-125 -129 0
-126 -127 0
-126 -128 0
-126 -129 0
-127 -128 0
-127 -129 0
-128 -129 0
130 131 132 133 0
-130 -131 0
-130 -132 0
-130 -133 0
-131 -132 0
-131 -133 0
-132 -133 0
135 136 137 138 139 140 0
-135 -136 0
-135 -137 0
-135 -138 0
-135 -139 0
-135 -140 0
-136 -137 0
-136 -138 0
-136 -139 0
-136 -140 0
-137 -138 0
-137 -139 0
-137 -140 0
-138 -139 0
-138 -140 0
-139 -140 0
141 142 143 144 0
-141 -142 0
-141 -143 0
-141 -144 0
-142 -143 0
-142 -144 0
-143 -144 0
146 147 148 149 150 0
-146 -147 0
-146 -148 0
-146 -149 0
-146 -150 0
-147 -148 0
-147 -149 0
-147 -150 0
-148 -149 0
-148 -150 0
-149 -150 0
151 152 153 154 0
-151 -152 0
-151 -153 0
-151 -154 0
-152 -153 0
-152 -154 0
-153 -154 0
156 157 158 159 0
-156 -157 0
-156 -158 0
-156 -159 0
-157 -158 0
-157 -159 0
-158 -159 0
160 161 162 163 0
-160 -161 0
-160 -162 0
-160 -163 0
-161 -162 0
-161 -163 0
-162 -163 0
-124 -130 -135 -141 0
-124 -131 -135 -142 0
-124 -132 -135 -143 0
-124 -133 -135 -144 0
-125 -130 -136 -141 0
-125 -131 -136 -142 0
-125 -132 -136 -143 0
-125 -133 -136 -144 0
-126 -130 -137 -141 0
-126 -131 -137 -142 0
-126 -132 -137 -143 0
-126 -133 -137 -144 0
-127 -130 -138 -141 0
-127 -131 -138 -142 0
-127 -132 -138 -143 0
-127 -133 -138 -144 0
-128 -130 -139 -141 0
-128 -131 -139 -142 0
-128 -132 -139 -143 0
-128 -133 -139 -144 0
-129 -130 -140 -141 0
-129 -131 -140 -142 0
-129 -132 -140 -143 0
-129 -133 -140 -144 0
-124 -130 -146 -151 0
-124 -131 -146 -152 0
-124 -132 -146 -153 0
-124 -133 -146 -154 0
-125 -130 -146 -151 0
-125 -131 -146 -152 0
-125 -132 -146 -153 0
-125 -133 -146 -154 0
-125 -130 -147 -151 0
-125 -131 -147 -152 0
-125 -132 -147 -153 0
-125 -133 -147 -154 0
-126 -130 -147 -151 0
-126 -131 -147 -152 0
-126 -132 -147 -153 0
-126 -133 -147 -154 0
-126 -130 -148 -151 0
-126 -131 -148 -152 0
-126 -132 -148 -153 0
-126 -133 -148 -154 0
-127 -130 -148 -151 0
-127 -131 -148 -152 0
-127 -132 -148 -153 0
-127 -133 -148 -154 0
-127 -130 -149 -151 0
-127 -131 -149 -152 0
-127 -132 -149 -153 0
-127 -133 -149 -154 0
-128 -130 -149 -151 0
-128 -131 -149 -152 0
-128 -132 -149 -153 0
-128 -133 -149 -154 0
-128 -130 -150 -151 0
-128 -131 -150 -152 0
-128 -132 -150 -153 0
-128 -133 -150 -154 0
-129 -130 -150 -151 0
-129 -131 -150 -152 0
-129 -132 -150 -153 0
-129 -133 -150 -154 0
-124 -130 -156 -160 0
-124 -131 -156 -161 0
-124 -132 -156 -162 0
-124 -133 -156 -163 0
-125 -130 -156 -160 0
-125 -131 -156 -161 0
-125 -132 -156 -162 0
-125 -133 -156 -163 0
-125 -130 -157 -160 0
-125 -131 -157 -161 0
-125 -132 -157 -162 0
-125 -133 -157 -163 0
-126 -130 -156 -160 0
-126 -131 -156 -161 0
-126 -132 -156 -162 0
-126 -133 -156 -163 0
-126 -130 -157 -160 0
-126 -131 -157 -161 0
-126 -132 -157 -162 0
-126 -133 -157 -163 0
-126 -130 -158 -160 0
-126 -131 -158 -161 0
-126 -132 -158 -162 0
-126 -133 -158 -163 0
-127 -130 -157 -160 0
-127 -131 -157 -161 0
-127 -132 -157 -162 0
-127 -133 -157 -163 0
-127 -130 -158 -160 0
-127 -131 -158 -161 0
-127 -132 -158 -162 0
-127 -133 -158 -163 0
-127 -130 -159 -160 0
-127 -131 -159 -161 0
-127 -132 -159 -162 0
-127 -133 -159 -163 0
-128 -130 -158 -160 0
-128 -131 -158 -161 0
-128 -132 -158 -162 0
-128 -133 -158 -163 0
-128 -130 -159 -160 0
-128 -131 -159 -161 0
-128 -132 -159 -162 0
-128 -133 -159 -163 0
-129 -130 -159 -160 0
-129 -131 -159 -161 0
-129 -132 -159 -162 0
-129 -133 -159 -163 0
-135 -141 -146 -151 0
-135 -142 -146 -152 0
-135 -143 -146 -153 0
-135 -144 -146 -154 0
-136 -141 -146 -151 0
-136 -142 -146 -152 0
-136 -143 -146 -153 0
-136 -144 -146 -154 0
-136 -141 -147 -151 0
-136 -142 -147 -152 0
-136 -143 -147 -153 0
-136 -144 -147 -154 0
-137 -141 -147 -151 0
-137 -142 -147 -152 0
-137 -143 -147 -153 0
-137 -144 -147 -154 0
-137 -141 -148 -151 0
-137 -142 -148 -152 0
-137 -143 -148 -153 0
-137 -144 -148 -154 0
-138 -141 -148 -151 0
-138 -142 -148 -152 0
-138 -143 -148 -153 0
-138 -144 -148 -154 0
-138 -141 -149 -151 0
-138 -142 -149 -152 0
-138 -143 -149 -153 0
-138 -144 -149 -154 0
-139 -141 -149 -151 0
-139 -142 -149 -152 0
-139 -143 -149 -153 0
-139 -144 -149 -154 0
-139 -141 -150 -151 0
-139 -142 -150 -152 0
-139 -143 -150 -153 0
-139 -144 -150 -154 0
-140 -141 -150 -151 0
-140 -142 -150 -152 0
-140 -143 -150 -153 0
-140 -144 -150 -154 0
-135 -141 -156 -160 0
-135 -142 -156 -161 0
-135 -143 -156 -162 0
-135 -144 -156 -163 0
-136 -141 -156 -160 0
-136 -142 -156 -161 0
-136 -143 -156 -162 0
-136 -144 -156 -163 0
-136 -141 -157 -160 0
-136 -142 -157 -161 0
-136 -143 -157 -162 0
-136 -144 -157 -163 0
-137 -141 -156 -160 0
-137 -142 -156 -161 0
-137 -143 -156 -162 0
-137 -144 -156 -163 0
-137 -141 -157 -160 0
-137 -142 -157 -161 0
-137 -143 -157 -162 0
-137 -144 -157 -163 0
-137 -141 -158 -160 0
-137 -142 -158 -161 0
-137 -143 -158 -162 0
-137 -144 -158 -163 0
-138 -141 -157 -160 0
-138 -142 -157 -161 0
-138 -143 -157 -162 0
-138 -144 -157 -163 0
-138 -141 -158 -160 0
-138 -142 -158 -161 0
-138 -143 -158 -162 0
-138 -144 -158 -163 0
-138 -141 -159 -160 0
-138 -142 -159 -161 0
-138 -143 -159 -162 0
-138 -144 -159 -163 0
-139 -141 -158 -160 0
-139 -142 -158 -161 0
-139 -143 -158 -162 0
-139 -144 -158 -163 0
-139 -141 -159 -160 0
-139 -142 -159 -161 0
-139 -143 -159 -162 0
-139 -144 -159 -163 0
-140 -141 -159 -160 0
-140 -142 -159 -161 0
-140 -143 -159 -162 0
-140 -144 -159 -163 0
-146 -151 -156 -160 0
-146 -152 -156 -161 0
-146 -153 -156 -162 0
-146 -154 -156 -163 0
-146 -151 -157 -160 0
-146 -152 -157 -161 0
-146 -153 -157 -162 0
-146 -154 -157 -163 0
-147 -151 -156 -160 0
-147 -152 -156 -161 0
-147 -153 -156 -162 0
-147 -154 -156 -163 0
-147 -151 -157 -160 0
-147 -152 -157 -161 0
-147 -153 -157 -162 0
-147 -154 -157 -163 0
-147 -151 -158 -160 0
-147 -152 -158 -161 0
-147 -153 -158 -162 0
-147 -154 -158 -163 0
-148 -151 -156 -160 0
-148 -152 -156 -161 0
-148 -153 -156 -162 0
-148 -154 -156 -163 0
-148 -151 -157 -160 0
-148 -152 -157 -161 0
-148 -153 -157 -162 0
-148 -154 -157 -163 0
-148 -151 -158 -160 0
-148 -152 -158 -161 0
-148 -153 -158 -162 0
-148 -154 -158 -163 0
-148 -151 -159 -160 0
-148 -152 -159 -161 0
-148 -153 -159 -162 0
-148 -154 -159 -163 0
-149 -151 -157 -160 0
-149 -152 -157 -161 0
-149 -153 -157 -162 0
-149 -154 -157 -163 0
-149 -151 -158 -160 0
-149 -152 -158 -161 0
-149 -153 -158 -162 0
-149 -154 -158 -163 0
-149 -151 -159 -160 0
-149 -152 -159 -161 0
-149 -153 -159 -162 0
-149 -154 -159 -163 0
-150 -151 -158 -160 0
-150 -152 -158 -161 0
-150 -153 -158 -162 0
-150 -154 -158 -163 0
-150 -151 -159 -160 0
-150 -152 -159 -161 0
-150 -153 -159 -162 0
-150 -154 -159 -163 0
-134 -124 -130 -135 -142 0
-134 -124 -131 -135 -143 0
-134 -124 -132 -135 -144 0
-134 -125 -130 -136 -142 0
-134 -125 -131 -136 -143 0
-134 -125 -132 -136 -144 0
-134 -126 -130 -137 -142 0
-134 -126 -131 -137 -143 0
-134 -126 -132 -137 -144 0
-134 -127 -130 -138 -142 0
-134 -127 -131 -138 -143 0
-134 -127 -132 -138 -144 0
-134 -128 -130 -139 -142 0
-134 -128 -131 -139 -143 0
-134 -128 -132 -139 -144 0
-134 -129 -130 -140 -142 0
-134 -129 -131 -140 -143 0
-134 -129 -132 -140 -144 0
-134 -124 -130 -146 -152 0
-134 -124 -131 -146 -153 0
-134 -124 -132 -146 -154 0
-134 -125 -130 -146 -152 0
-134 -125 -131 -146 -153 0
-134 -125 -132 -146 -154 0
-134 -125 -130 -147 -152 0
-134 -125 -131 -147 -153 0
-134 -125 -132 -147 -154 0
-134 -126 -130 -147 -152 0
-134 -126 -131 -147 -153 0
-134 -126 -132 -147 -154 0
-134 -126 -130 -148 -152 0
-134 -126 -131 -148 -153 0
-134 -126 -132 -148 -154 0
-134 -127 -130 -148 -152 0
-134 -127 -131 -148 -153 0
-134 -127 -132 -148 -154 0
-134 -127 -130 -149 -152 0
-134 -127 -131 -149 -153 0
-134 -127 -132 -149 -154 0
-134 -128 -130 -149 -152 0
-134 -128 -131 -149 -153 0
-134 -128 -132 -149 -154 0
-134 -128 -130 -150 -152 0
-134 -128 -131 -150 -153 0
-134 -128 -132 -150 -154 0
-134 -129 -130 -150 -152 0
-134 -129 -131 -150 -153 0
-134 -129 -132 -150 -154 0
-134 -124 -130 -156 -161 0
-134 -124 -131 -156 -162 0
-134 -124 -132 -156 -163 0
-134 -125 -130 -156 -161 0
-134 -125 -131 -156 -162 0
-134 -125 -132 -156 -163 0
-134 -125 -130 -157 -161 0
-134 -125 -131 -157 -162 0
-134 -125 -132 -157 -163 0
-134 -126 -130 -156 -161 0
-134 -126 -131 -156 -162 0
-134 -126 -132 -156 -163 0
-134 -126 -130 -157 -161 0
-134 -126 -131 -157 -162 0
-134 -126 -132 -157 -163 0
-134 -126 -130 -158 -161 0
-134 -126 -131 -158 -162 0
-134 -126 -132 -158 -163 0
-134 -127 -130 -157 -161 0
-134 -127 -131 -157 -162 0
-134 -127 -132 -157 -163 0
-134 -127 -130 -158 -161 0
-134 -127 -131 -158 -162 0
-134 -127 -132 -158 -163 0
-134 -127 -130 -159 -161 0
-134 -127 -131 -159 -162 0
-134 -127 -132 -159 -163 0
-134 -128 -130 -158 -161 0
-134 -128 -131 -158 -162 0
-134 -128 -132 -158 -163 0
-134 -128 -130 -159 -161 0
-134 -128 -131 -159 -162 0
-134 -128 -132 -159 -163 0
-134 -129 -130 -159 -161 0
-134 -129 -131 -159 -162 0
-134 -129 -132 -159 -163 0
-145 -135 -141 -124 -131 0
-145 -135 -142 -124 -132 0
-145 -135 -143 -124 -133 0
-145 -136 -141 -125 -131 0
-145 -136 -142 -125 -132 0
-145 -136 -143 -125 -133 0
-145 -137 -141 -126 -131 0
-145 -137 -142 -126 -132 0
-145 -137 -143 -126 -133 0
-145 -138 -141 -127 -131 0
-145 -138 -142 -127 -132 0
-145 -138 -143 -127 -133 0
-145 -139 -141 -128 -131 0
-145 -139 -142 -128 -132 0
-145 -139 -143 -128 -133 0
-145 -140 -141 -129 -131 0
-145 -140 -142 -129 -132 0
-145 -140 -143 -129 -133 0
-145 -135 -141 -146 -152 0
-145 -135 -142 -146 -153 0
-145 -135 -143 -146 -154 0
-145 -136 -141 -146 -152 0
-145 -136 -142 -146 -153 0
-145 -136 -143 -146 -154 0
-145 -136 -141 -147 -152 0
-145 -136 -142 -147 -153 0
-145 -136 -143 -147 -154 0
-145 -137 -141 -147 -152 0
-145 -137 -142 -147 -153 0
-145 -137 -143 -147 -154 0
-145 -137 -141 -148 -152 0
-145 -137 -142 -148 -153 0
-145 -137 -143 -148 -154 0
-145 -138 -141 -148 -152 0
-145 -138 -142 -148 -153 0
-145 -138 -143 -148 -154 0
-145 -138 -141 -149 -152 0
-145 -138 -142 -149 -153 0
-145 -138 -143 -149 -154 0
-145 -139 -141 -149 -152 0
-145 -139 -142 -149 -153 0
-145 -139 -143 -149 -154 0
-145 -139 -141 -150 -152 0
-145 -139 -142 -150 -153 0
-145 -139 -143 -150 -154 0
-145 -140 -141 -150 -152 0
-145 -140 -142 -150 -153 0
-145 -140 -143 -150 -154 0
-145 -135 -141 -156 -161 0
-145 -135 -142 -156 -162 0
-145 -135 -143 -156 -163 0
-145 -136 -141 -156 -161 0
-145 -136 -142 -156 -162 0
-145 -136 -143 -156 -163 0
-145 -136 -141 -157 -161 0
-145 -136 -142 -157 -162 0
-145 -136 -143 -157 -163 0
-145 -137 -141 -156 -161 0
-145 -137 -142 -156 -162 0
-145 -137 -143 -156 -163 0
-145 -137 -141 -157 -161 0
-145 -137 -142 -157 -162 0
-145 -137 -143 -157 -163 0
-145 -137 -141 -158 -161 0
-145 -137 -142 -158 -162 0
-145 -137 -143 -158 -163 0
-145 -138 -141 -157 -161 0
-145 -138 -142 -157 -162 0
-145 -138 -143 -157 -163 0
-145 -138 -141 -158 -161 0
-145 -138 -142 -158 -162 0
-145 -138 -143 -158 -163 0
-145 -138 -141 -159 -161 0
-145 -138 -142 -159 -162 0
-145 -138 -143 -159 -163 0
-145 -139 -141 -158 -161 0
-145 -139 -142 -158 -162 0
-145 -139 -143 -158 -163 0
-145 -139 -141 -159 -161 0
-145 -139 -142 -159 -162 0
-145 -139 -143 -159 -163 0
-145 -140 -141 -159 -161 0
-145 -140 -142 -159 -162 0
-145 -140 -143 -159 -163 0
-155 -146 -151 -124 -131 0
-155 -146 -152 -124 -132 0
-155 -146 -153 -124 -133 0
-155 -146 -151 -125 -131 0
-155 -146 -152 -125 -132 0
-155 -146 -153 -125 -133 0
-155 -147 -151 -125 -131 0
-155 -147 -152 -125 -132 0
-155 -147 -153 -125 -133 0
-155 -147 -151 -126 -131 0
-155 -147 -152 -126 -132 0
-155 -147 -153 -126 -133 0
-155 -148 -151 -126 -131 0
-155 -148 -152 -126 -132 0
-155 -148 -153 -126 -133 0
-155 -148 -151 -127 -131 0
-155 -148 -152 -127 -132 0
-155 -148 -153 -127 -133 0
-155 -149 -151 -127 -131 0
-155 -149 -152 -127 -132 0
-155 -149 -153 -127 -133 0
-155 -149 -151 -128 -131 0
-155 -149 -152 -128 -132 0
-155 -149 -153 -128 -133 0
-155 -150 -151 -128 -131 0
-155 -150 -152 -128 -132 0
-155 -150 -153 -128 -133 0
-155 -150 -151 -129 -131 0
-155 -150 -152 -129 -132 0
-155 -150 -153 -129 -133 0
-155 -146 -151 -135 -142 0
-155 -146 -152 -135 -143 0
-155 -146 -153 -135 -144 0
-155 -146 -151 -136 -142 0
-155 -146 -152 -136 -143 0
-155 -146 -153 -136 -144 0
-155 -147 -151 -136 -142 0
-155 -147 -152 -136 -143 0
-155 -147 -153 -136 -144 0
-155 -147 -151 -137 -142 0
-155 -147 -152 -137 -143 0
-155 -147 -153 -137 -144 0
-155 -148 -151 -137 -142 0
-155 -148 -152 -137 -143 0
-155 -148 -153 -137 -144 0
-155 -148 -151 -138 -142 0
-155 -148 -152 -138 -143 0
-155 -148 -153 -138 -144 0
-155 -149 -151 -138 -142 0
-155 -149 -152 -138 -143 0
-155 -149 -153 -138 -144 0
-155 -149 -151 -139 -142 0
-155 -149 -152 -139 -143 0
-155 -149 -153 -139 -144 0
-155 -150 -151 -139 -142 0
-155 -150 -152 -139 -143 0
-155 -150 -153 -139 -144 0
-155 -150 -151 -140 -142 0
-155 -150 -152 -140 -143 0
-155 -150 -153 -140 -144 0
-155 -146 -151 -156 -161 0
-155 -146 -152 -156 -162 0
-155 -146 -153 -156 -163 0
-155 -146 -151 -157 -161 0
-155 -146 -152 -157 -162 0
-155 -146 -153 -157 -163 0
-155 -147 -151 -156 -161 0
-155 -147 -152 -156 -162 0
-155 -147 -153 -156 -163 0
-155 -147 -151 -157 -161 0
-155 -147 -152 -157 -162 0
-155 -147 -153 -157 -163 0
-155 -147 -151 -158 -161 0
-155 -147 -152 -158 -162 0
-155 -147 -153 -158 -163 0
-155 -148 -151 -156 -161 0
-155 -148 -152 -156 -162 0
-155 -148 -153 -156 -163 0
-155 -148 -151 -157 -161 0
-155 -148 -152 -157 -162 0
-155 -148 -153 -157 -163 0
-155 -148 -151 -158 -161 0
-155 -148 -152 -158 -162 0
-155 -148 -153 -158 -163 0
-155 -148 -151 -159 -161 0
-155 -148 -152 -159 -162 0
-155 -148 -153 -159 -163 0
-155 -149 -151 -157 -161 0
-155 -149 -152 -157 -162 0
-155 -149 -153 -157 -163 0
-155 -149 -151 -158 -161 0
-155 -149 -152 -158 -162 0
-155 -149 -153 -158 -163 0
-155 -149 -151 -159 -161 0
-155 -149 -152 -159 -162 0
-155 -149 -153 -159 -163 0
-155 -150 -151 -158 -161 0
-155 -150 -152 -158 -162 0
-155 -150 -153 -158 -163 0
-155 -150 -151 -159 -161 0
-155 -150 -152 -159 -162 0
-155 -150 -153 -159 -163 0
-164 -156 -160 -124 -131 0
-164 -156 -161 -124 -132 0
-164 -156 -162 -124 -133 0
-164 -156 -160 -125 -131 0
-164 -156 -161 -125 -132 0
-164 -156 -162 -125 -133 0
-164 -156 -160 -126 -131 0
-164 -156 -161 -126 -132 0
-164 -156 -162 -126 -133 0
-164 -157 -160 -125 -131 0
-164 -157 -161 -125 -132 0
-164 -157 -162 -125 -133 0
-164 -157 -160 -126 -131 0
-164 -157 -161 -126 -132 0
-164 -157 -162 -126 -133 0
-164 -157 -160 -127 -131 0
-164 -157 -161 -127 -132 0
-164 -157 -162 -127 -133 0
-164 -158 -160 -126 -131 0
-164 -158 -161 -126 -132 0
-164 -158 -162 -126 -133 0
-164 -158 -160 -127 -131 0
-164 -158 -161 -127 -132 0
-164 -158 -162 -127 -133 0
-164 -158 -160 -128 -131 0
-164 -158 -161 -128 -132 0
-164 -158 -162 -128 -133 0
-164 -159 -160 -127 -131 0
-164 -159 -161 -127 -132 0
-164 -159 -162 -127 -133 0
-164 -159 -160 -128 -131 0
-164 -159 -161 -128 -132 0
-164 -159 -162 -128 -133 0
-164 -159 -160 -129 -131 0
-164 -159 -161 -129 -132 0
-164 -159 -162 -129 -133 0
-164 -156 -160 -135 -142 0
-164 -156 -161 -135 -143 0
-164 -156 -162 -135 -144 0
-164 -156 -160 -136 -142 0
-164 -156 -161 -136 -143 0
-164 -156 -162 -136 -144 0
-164 -156 -160 -137 -142 0
-164 -156 -161 -137 -143 0
-164 -156 -162 -137 -144 0
-164 -157 -160 -136 -142 0
-164 -157 -161 -136 -143 0
-164 -157 -162 -136 -144 0
-164 -157 -160 -137 -142 0
-164 -157 -161 -137 -143 0
-164 -157 -162 -137 -144 0
-164 -157 -160 -138 -142 0
-164 -157 -161 -138 -143 0
-164 -157 -162 -138 -144 0
-164 -158 -160 -137 -142 0
-164 -158 -161 -137 -143 0
-164 -158 -162 -137 -144 0
-164 -158 -160 -138 -142 0
-164 -158 -161 -138 -143 0
-164 -158 -162 -138 -144 0
-164 -158 -160 -139 -142 0
-164 -158 -161 -139 -143 0
-164 -158 -162 -139 -144 0
-164 -159 -160 -138 -142 0
-164 -159 -161 -138 -143 0
-164 -159 -162 -138 -144 0
-164 -159 -160 -139 -142 0
-164 -159 -161 -139 -143 0
-164 -159 -162 -139 -144 0
-164 -159 -160 -140 -142 0
-164 -159 -161 -140 -143 0
-164 -159 -162 -140 -144 0
-164 -156 -160 -146 -152 0
-164 -156 -161 -146 -153 0
-164 -156 -162 -146 -154 0
-164 -156 -160 -147 -152 0
-164 -156 -161 -147 -153 0
-164 -156 -162 -147 -154 0
-164 -156 -160 -148 -152 0
-164 -156 -161 -148 -153 0
-164 -156 -162 -148 -154 0
-164 -157 -160 -146 -152 0
-164 -157 -161 -146 -153 0
-164 -157 -162 -146 -154 0
-164 -157 -160 -147 -152 0
-164 -157 -161 -147 -153 0
-164 -157 -162 -147 -154 0
-164 -157 -160 -148 -152 0
-164 -157 -161 -148 -153 0
-164 -157 -162 -148 -154 0
-164 -157 -160 -149 -152 0
-164 -157 -161 -149 -153 0
-164 -157 -162 -149 -154 0
-164 -158 -160 -147 -152 0
-164 -158 -161 -147 -153 0
-164 -158 -162 -147 -154 0
-164 -158 -160 -148 -152 0
-164 -158 -161 -148 -153 0
-164 -158 -162 -148 -154 0
-164 -158 -160 -149 -152 0
-164 -158 -161 -149 -153 0
-164 -158 -162 -149 -154 0
-164 -158 -160 -150 -152 0
-164 -158 -161 -150 -153 0
-164 -158 -162 -150 -154 0
-164 -159 -160 -148 -152 0
-164 -159 -161 -148 -153 0
-164 -159 -162 -148 -154 0
-164 -159 -160 -149 -152 0
-164 -159 -161 -149 -153 0
-164 -159 -162 -149 -154 0
-164 -159 -160 -150 -152 0
-164 -159 -161 -150 -153 0
-164 -159 -162 -150 -154 0
-165 11 0
-165 42 0
-165 48 0
-166 11 0
-166 22 0
-166 12 0
-166 -18 49 0
-166 -19 50 0
-166 -20 51 0
-166 42 0
-167 11 0
-167 32 0
-167 23 0
-167 -28 49 0
-167 -29 50 0
-167 -30 51 0
-167 42 0
-168 11 0
-168 41 0
-168 33 0
-168 -37 49 0
-168 -38 50 0
-168 -39 51 0
-168 42 0
-169 11 0
-169 43 0
-169 48 0
-170 11 0
-170 22 0
-170 13 0
-170 -18 49 0
-170 -19 50 0
-170 -20 51 0
-170 43 0
-171 11 0
-171 32 0
-171 23 24 0
-171 -28 49 0
-171 -29 50 0
-171 -30 51 0
-171 43 0
-172 11 0
-172 41 0
-172 33 34 0
-172 -37 49 0
-172 -38 50 0
-172 -39 51 0
-172 43 0
-173 11 0
-173 44 0
-173 48 0
-174 11 0
-174 22 0
-174 14 0
-174 -18 49 0
-174 -19 50 0
-174 -20 51 0
-174 44 0
-175 11 0
-175 32 0
-175 24 25 0
-175 -28 49 0
-175 -29 50 0
-175 -30 51 0
-175 44 0
-176 11 0
-176 41 0
-176 33 34 35 0
-176 -37 49 0
-176 -38 50 0
-176 -39 51 0
-176 44 0
-177 11 0
-177 45 0
-177 48 0
-178 11 0
-178 22 0
-178 15 0
-178 -18 49 0
-178 -19 50 0
-178 -20 51 0
-178 45 0
-179 11 0
-179 32 0
-179 25 26 0
-179 -28 49 0
-179 -29 50 0
-179 -30 51 0
-179 45 0
-180 11 0
-180 41 0
-180 34 35 36 0
-180 -37 49 0
-180 -38 50 0
-180 -39 51 0
-180 45 0
-181 11 0
-181 46 0
-181 48 0
-182 11 0
-182 22 0
-182 16 0
-182 -18 49 0
-182 -19 50 0
-182 -20 51 0
-182 46 0
-183 11 0
-183 32 0
-183 26 27 0
-183 -28 49 0
-183 -29 50 0
-183 -30 51 0
-183 46 0
-184 11 0
-184 41 0
-184 35 36 0
-184 -37 49 0
-184 -38 50 0
-184 -39 51 0
-184 46 0
-185 11 0
-185 47 0
-185 48 0
-186 11 0
-186 22 0
-186 17 0
-186 -18 49 0
-186 -19 50 0
-186 -20 51 0
-186 47 0
-187 11 0
-187 32 0
-187 27 0
-187 -28 49 0
-187 -29 50 0
-187 -30 51 0
-187 47 0
-188 11 0
-188 41 0
-188 36 0
-188 -37 49 0
-188 -38 50 0
-188 -39 51 0
-188 47 0
-189 22 0
-189 53 0
-189 59 0
-190 22 0
-190 11 0
-190 1 0
-190 -7 60 0
-190 -8 61 0
-190 -9 62 0
-190 53 0
-191 22 0
-191 32 0
-191 23 0
-191 -28 60 0
-191 -29 61 0
-191 -30 62 0
-191 53 0
-192 22 0
-192 41 0
-192 33 0
-192 -37 60 0
-192 -38 61 0
-192 -39 62 0
-192 53 0
-193 22 0
-193 54 0
-193 59 0
-194 22 0
-194 11 0
-194 2 0
-194 -7 60 0
-194 -8 61 0
-194 -9 62 0
-194 54 0
-195 22 0
-195 32 0
-195 23 24 0
-195 -28 60 0
-195 -29 61 0
-195 -30 62 0
-195 54 0
-196 22 0
-196 41 0
-196 33 34 0
-196 -37 60 0
-196 -38 61 0
-196 -39 62 0
-196 54 0
-197 22 0
-197 55 0
-197 59 0
-198 22 0
-198 11 0
-198 3 0
-198 -7 60 0
-198 -8 61 0
-198 -9 62 0
-198 55 0
-199 22 0
-199 32 0
-199 24 25 0
-199 -28 60 0
-199 -29 61 0
-199 -30 62 0
-199 55 0
-200 22 0
-200 41 0
-200 33 34 35 0
-200 -37 60 0
-200 -38 61 0
-200 -39 62 0
-200 55 0
-201 22 0
-201 56 0
-201 59 0
-202 22 0
-202 11 0
-202 4 0
-202 -7 60 0
-202 -8 61 0
-202 -9 62 0
-202 56 0
-203 22 0
-203 32 0
-203 25 26 0
-203 -28 60 0
-203 -29 61 0
-203 -30 62 0
-203 56 0
-204 22 0
-204 41 0
-204 34 35 36 0
-204 -37 60 0
-204 -38 61 0
-204 -39 62 0
-204 56 0
-205 22 0
-205 57 0
-205 59 0
-206 22 0
-206 11 0
-206 5 0
-206 -7 60 0
-206 -8 61 0
-206 -9 62 0
-206 57 0
-207 22 0
-207 32 0
-207 26 27 0
-207 -28 60 0
-207 -29 61 0
-207 -30 62 0
-207 57 0
-208 22 0
-208 41 0
-208 35 36 0
-208 -37 60 0
-208 -38 61 0
-208 -39 62 0
-208 57 0
-209 22 0
-209 58 0
-209 59 0
-210 22 0
-210 11 0
-210 6 0
-210 -7 60 0
-210 -8 61 0
-210 -9 62 0
-210 58 0
-211 22 0
-211 32 0
-211 27 0
-211 -28 60 0
-211 -29 61 0
-211 -30 62 0
-211 58 0
-212 22 0
-212 41 0
-212 36 0
-212 -37 60 0
-212 -38 61 0
-212 -39 62 0
-212 58 0
-213 32 0
-213 64 0
-213 69 0
-214 32 0
-214 11 0
-214 1 2 0
-214 -7 70 0
-214 -8 71 0
-214 -9 72 0
-214 64 0
-215 32 0
-215 22 0
-215 12 13 0
-215 -18 70 0
-215 -19 71 0
-215 -20 72 0
-215 64 0
-216 32 0
-216 41 0
-216 33 34 0
-216 -37 70 0
-216 -38 71 0
-216 -39 72 0
-216 64 0
-217 32 0
-217 65 0
-217 69 0
-218 32 0
-218 11 0
-218 2 3 0
-218 -7 70 0
-218 -8 71 0
-218 -9 72 0
-218 65 0
-219 32 0
-219 22 0
-219 13 14 0
-219 -18 70 0
-219 -19 71 0
-219 -20 72 0
-219 65 0
-220 32 0
-220 41 0
-220 33 34 35 0
-220 -37 70 0
-220 -38 71 0
-220 -39 72 0
-220 65 0
-221 32 0
-221 66 0
-221 69 0
-222 32 0
-222 11 0
-222 3 4 0
-222 -7 70 0
-222 -8 71 0
-222 -9 72 0
-222 66 0
-223 32 0
-223 22 0
-223 14 15 0
-223 -18 70 0
-223 -19 71 0
-223 -20 72 0
-223 66 0
-224 32 0
-224 41 0
-224 33 34 35 36 0
-224 -37 70 0
-224 -38 71 0
-224 -39 72 0
-224 66 0
-225 32 0
-225 67 0
-225 69 0
-226 32 0
-226 11 0
-226 4 5 0
-226 -7 70 0
-226 -8 71 0
-226 -9 72 0
-226 67 0
-227 32 0
-227 22 0
-227 15 16 0
-227 -18 70 0
-227 -19 71 0
-227 -20 72 0
-227 67 0
-228 32 0
-228 41 0
-228 34 35 36 0
-228 -37 70 0
-228 -38 71 0
-228 -39 72 0
-228 67 0
-229 32 0
-229 68 0
-229 69 0
-230 32 0
-230 11 0
-230 5 6 0
-230 -7 70 0
-230 -8 71 0
-230 -9 72 0
-230 68 0
-231 32 0
-231 22 0
-231 16 17 0
-231 -18 70 0
-231 -19 71 0
-231 -20 72 0
-231 68 0
-232 32 0
-232 41 0
-232 35 36 0
-232 -37 70 0
-232 -38 71 0
-232 -39 72 0
-232 68 0
-233 41 0
-233 74 0
-233 78 0
-234 41 0
-234 11 0
-234 1 2 3 0
-234 -7 79 0
-234 -8 80 0
-234 -9 81 0
-234 74 0
-235 41 0
-235 22 0
-235 12 13 14 0
-235 -18 79 0
-235 -19 80 0
-235 -20 81 0
-235 74 0
-236 41 0
-236 32 0
-236 23 24 25 0
-236 -28 79 0
-236 -29 80 0
-236 -30 81 0
-236 74 0
-237 41 0
-237 75 0
-237 78 0
-238 41 0
-238 11 0
-238 2 3 4 0
-238 -7 79 0
-238 -8 80 0
-238 -9 81 0
-238 75 0
-239 41 0
-239 22 0
-239 13 14 15 0
-239 -18 79 0
-239 -19 80 0
-239 -20 81 0
-239 75 0
-240 41 0
-240 32 0
-240 23 24 25 26 0
-240 -28 79 0
-240 -29 80 0
-240 -30 81 0
-240 75 0
-241 41 0
-241 76 0
-241 78 0
-242 41 0
-242 11 0
-242 3 4 5 0
-242 -7 79 0
-242 -8 80 0
-242 -9 81 0
-242 76 0
-243 41 0
-243 22 0
-243 14 15 16 0
-243 -18 79 0
-243 -19 80 0
-243 -20 81 0
-243 76 0
-244 41 0
-244 32 0
-244 24 25 26 27 0
-244 -28 79 0
-244 -29 80 0
-244 -30 81 0
-244 76 0
-245 41 0
-245 77 0
-245 78 0
-246 41 0
-246 11 0
-246 4 5 6 0
-246 -7 79 0
-246 -8 80 0
-246 -9 81 0
-246 77 0
-247 41 0
-247 22 0
-247 15 16 17 0
-247 -18 79 0
-247 -19 80 0
-247 -20 81 0
-247 77 0
-248 41 0
-248 32 0
-248 25 26 27 0
-248 -28 79 0
-248 -29 80 0
-248 -30 81 0
-248 77 0
165 166 167 168 169 170 171 172 173 174 175 176 177 178 179 180 181 182 183 184 185 186 187 188 189 190 191 192 193 194 195 196 197 198 199 200 201 202 203 204 205 206 207 208 209 210 211 212 213 214 215 216 217 218 219 220 221 222 223 224 225 226 227 228 229 230 231 232 233 234 235 236 237 238 239 240 241 242 243 244 245 246 247 248 0
-165 -166 0
-165 -167 0
-165 -168 0
-165 -169 0
-165 -170 0
-165 -171 0
-165 -172 0
-165 -173 0
-165 -174 0
-165 -175 0
-165 -176 0
-165 -177 0
-165 -178 0
-165 -179 0
-165 -180 0
-165 -181 0
-165 -182 0
-165 -183 0
-165 -184 0
-165 -185 0
-165 -186 0
-165 -187 0
-165 -188 0
-165 -189 0
-165 -190 0
-165 -191 0
-165 -192 0
-165 -193 0
-165 -194 0
-165 -195 0
-165 -196 0
-165 -197 0
-165 -198 0
-165 -199 0
-165 -200 0
-165 -201 0
-165 -202 0
-165 -203 0
-165 -204 0
-165 -205 0
-165 -206 0
-165 -207 0
-165 -208 0
-165 -209 0
-165 -210 0
-165 -211 0
-165 -212 0
-165 -213 0
-165 -214 0
-165 -215 0
-165 -216 0
-165 -217 0
-165 -218 0
-165 -219 0
-165 -220 0
-165 -221 0
-165 -222 0
-165 -223 0
-165 -224 0
-165 -225 0
-165 -226 0
-165 -227 0
-165 -228 0
-165 -229 0
-165 -230 0
-165 -231 0
-165 -232 0
-165 -233 0
-165 -234 0
-165 -235 0
-165 -236 0
-165 -237 0
-165 -238 0
-165 -239 0
-165 -240 0
-165 -241 0
-165 -242 0
-165 -243 0
-165 -244 0
-165 -245 0
-165 -246 0
-165 -247 0
-165 -248 0
-166 -167 0
-166 -168 0
-166 -169 0
-166 -170 0
-166 -171 0
-166 -172 0
-166 -173 0
-166 -174 0
-166 -175 0
-166 -176 0
-166 -177 0
-166 -178 0
-166 -179 0
-166 -180 0
-166 -181 0
-166 -182 0
-166 -183 0
-166 -184 0
-166 -185 0
-166 -186 0
-166 -187 0
-166 -188 0
-166 -189 0
-166 -190 0
-166 -191 0
-166 -192 0
-166 -193 0
-166 -194 0
-166 -195 0
-166 -196 0
-166 -197 0
-166 -198 0
-166 -199 0
-166 -200 0
-166 -201 0
-166 -202 0
-166 -203 0
-166 -204 0
-166 -205 0
-166 -206 0
-166 -207 0
-166 -208 0
-166 -209 0
-166 -210 0
-166 -211 0
-166 -212 0
-166 -213 0
-166 -214 0
-166 -215 0
-166 -216 0
-166 -217 0
-166 -218 0
-166 -219 0
-166 -220 0
-166 -221 0
-166 -222 0
-166 -223 0
-166 -224 0
-166 -225 0
-166 -226 0
-166 -227 0
-166 -228 0
-166 -229 0
-166 -230 0
-166 -231 0
-166 -232 0
-166 -233 0
-166 -234 0
-166 -235 0
-166 -236 0
-166 -237 0
-166 -238 0
-166 -239 0
-166 -240 0
-166 -241 0
-166 -242 0
-166 -243 0
-166 -244 0
-166 -245 0
-166 -246 0
-166 -247 0
-166 -248 0
-167 -168 0
-167 -169 0
-167 -170 0
-167 -171 0
-167 -172 0
-167 -173 0
-167 -174 0
-167 -175 0
-167 -176 0
-167 -177 0
-167 -178 0
-167 -179 0
-167 -180 0
-167 -181 0
-167 -182 0
-167 -183 0
-167 -184 0
-167 -185 0
-167 -186 0
-167 -187 0
-167 -188 0
-167 -189 0
-167 -190 0
-167 -191 0
-167 -192 0
-167 -193 0
-167 -194 0
-167 -195 0
-167 -196 0
-167 -197 0
-167 -198 0
-167 -199 0
-167 -200 0
-167 -201 0
-167 -202 0
-167 -203 0
-167 -204 0
-167 -205 0
-167 -206 0
-167 -207 0
-167 -208 0
-167 -209 0
-167 -210 0
-167 -211 0
-167 -212 0
-167 -213 0
-167 -214 0
-167 -215 0
-167 -216 0
-167 -217 0
-167 -218 0
-167 -219 0
-167 -220 0
-167 -221 0
-167 -222 0
-167 -223 0
-167 -224 0
-167 -225 0
-167 -226 0
-167 -227 0
-167 -228 0
-167 -229 0
-167 -230 0
-167 -231 0
-167 -232 0
-167 -233 0
-167 -234 0
-167 -235 0
-167 -236 0
-167 -237 0
-167 -238 0
-167 -239 0
-167 -240 0
-167 -241 0
-167 -242 0
-167 -243 0
-167 -244 0
-167 -245 0
-167 -246 0
-167 -247 0
-167 -248 0
-168 -169 0
-168 -170 0
-168 -171 0
-168 -172 0
-168 -173 0
-168 -174 0
-168 -175 0
-168 -176 0
-168 -177 0
-168 -178 0
-168 -179 0
-168 -180 0
-168 -181 0
-168 -182 0
-168 -183 0
-168 -184 0
-168 -185 0
-168 -186 0
-168 -187 0
-168 -188 0
-168 -189 0
-168 -190 0
-168 -191 0
-168 -192 0
-168 -193 0
-168 -194 0
-168 -195 0
-168 -196 0
-168 -197 0
-168 -198 0
-168 -199 0
-168 -200 0
-168 -201 0
-168 -202 0
-168 -203 0
-168 -204 0
-168 -205 0
-168 -206 0
-168 -207 0
-168 -208 0
-168 -209 0
-168 -210 0
-168 -211 0
-168 -212 0
-168 -213 0
-168 -214 0
-168 -215 0
-168 -216 0
-168 -217 0
-168 -218 0
-168 -219 0
-168 -220 0
-168 -221 0
-168 -222 0
-168 -223 0
-168 -224 0
-168 -225 0
-168 -226 0
-168 -227 0
-168 -228 0
-168 -229 0
-168 -230 0
-168 -231 0
-168 -232 0
-168 -233 0
-168 -234 0
-168 -235 0
-168 -236 0
-168 -237 0
-168 -238 0
-168 -239 0
-168 -240 0
-168 -241 0
-168 -242 0
-168 -243 0
-168 -244 0
-168 -245 0
-168 -246 0
-168 -247 0
-168 -248 0
-169 -170 0
-169 -171 0
-169 -172 0
-169 -173 0
-169 -174 0
-169 -175 0
-169 -176 0
-169 -177 0
-169 -178 0
-169 -179 0
-169 -180 0
-169 -181 0
-169 -182 0
-169 -183 0
-169 -184 0
-169 -185 0
-169 -186 0
-169 -187 0
-169 -188 0
-169 -189 0
-169 -190 0
-169 -191 0
-169 -192 0
-169 -193 0
-169 -194 0
-169 -195 0
-169 -196 0
-169 -197 0
-169 -198 0
-169 -199 0
-169 -200 0
-169 -201 0
-169 -202 0
-169 -203 0
-169 -204 0
-169 -205 0
-169 -206 0
-169 -207 0
-169 -208 0
-169 -209 0
-169 -210 0
-169 -211 0
-169 -212 0
-169 -213 0
-169 -214 0
-169 -215 0
-169 -216 0
-169 -217 0
-169 -218 0
-169 -219 0
-169 -220 0
-169 -221 0
-169 -222 0
-169 -223 0
-169 -224 0
-169 -225 0
-169 -226 0
-169 -227 0
-169 -228 0
-169 -229 0
-169 -230 0
-169 -231 0
-169 -232 0
-169 -233 0
-169 -234 0
-169 -235 0
-169 -236 0
-169 -237 0
-169 -238 0
-169 -239 0
-169 -240 0
-169 -241 0
-169 -242 0
-169 -243 0
-169 -244 0
-169 -245 0
-169 -246 0
-169 -247 0
-169 -248 0
-170 -171 0
-170 -172 0
-170 -173 0
-170 -174 0
-170 -175 0
-170 -176 0
-170 -177 0
-170 -178 0
-170 -179 0
-170 -180 0
-170 -181 0
-170 -182 0
-170 -183 0
-170 -184 0
-170 -185 0
-170 -186 0
-170 -187 0
-170 -188 0
-170 -189 0
-170 -190 0
-170 -191 0
-170 -192 0
-170 -193 0
-170 -194 0
-170 -195 0
-170 -196 0
-170 -197 0
-170 -198 0
-170 -199 0
-170 -200 0
-170 -201 0
-170 -202 0
-170 -203 0
-170 -204 0
-170 -205 0
-170 -206 0
-170 -207 0
-170 -208 0
-170 -209 0
-170 -210 0
-170 -211 0
-170 -212 0
-170 -213 0
-170 -214 0
-170 -215 0
-170 -216 0
-170 -217 0
-170 -218 0
-170 -219 0
-170 -220 0
-170 -221 0
-170 -222 0
-170 -223 0
-170 -224 0
-170 -225 0
-170 -226 0
-170 -227 0
-170 -228 0
-170 -229 0
-170 -230 0
-170 -231 0
-170 -232 0
-170 -233 0
-170 -234 0
-170 -235 0
-170 -236 0
-170 -237 0
-170 -238 0
-170 -239 0
-170 -240 0
-170 -241 0
-170 -242 0
-170 -243 0
-170 -244 0
-170 -245 0
-170 -246 0
-170 -247 0
-170 -248 0
-171 -172 0
-171 -173 0
-171 -174 0
-171 -175 0
-171 -176 0
-171 -177 0
-171 -178 0
-171 -179 0
-171 -180 0
-171 -181 0
-171 -182 0
-171 -183 0
-171 -184 0
-171 -185 0
-171 -186 0
-171 -187 0
-171 -188 0
-171 -189 0
-171 -190 0
-171 -191 0
-171 -192 0
-171 -193 0
-171 -194 0
-171 -195 0
-171 -196 0
-171 -197 0
-171 -198 0
-171 -199 0
-171 -200 0
-171 -201 0
-171 -202 0
-171 -203 0
-171 -204 0
-171 -205 0
-171 -206 0
-171 -207 0
-171 -208 0
-171 -209 0
-171 -210 0
-171 -211 0
-171 -212 0
-171 -213 0
-171 -214 0
-171 -215 0
-171 -216 0
-171 -217 0
-171 -218 0
-171 -219 0
-171 -220 0
-171 -221 0
-171 -222 0
-171 -223 0
-171 -224 0
-171 -225 0
-171 -226 0
-171 -227 0
-171 -228 0
-171 -229 0
-171 -230 0
-171 -231 0
-171 -232 0
-171 -233 0
-171 -234 0
-171 -235 0
-171 -236 0
-171 -237 0
-171 -238 0
-171 -239 0
-171 -240 0
-171 -241 0
-171 -242 0
-171 -243 0
-171 -244 0
-171 -245 0
-171 -246 0
-171 -247 0
-171 -248 0
-172 -173 0
-172 -174 0
-172 -175 0
-172 -176 0
-172 -177 0
-172 -178 0
-172 -179 0
-172 -180 0
-172 -181 0
-172 -182 0
-172 -183 0
-172 -184 0
-172 -185 0
-172 -186 0
-172 -187 0
-172 -188 0
-172 -189 0
-172 -190 0
-172 -191 0
-172 -192 0
-172 -193 0
-172 -194 0
-172 -195 0
-172 -196 0
-172 -197 0
-172 -198 0
-172 -199 0
-172 -200 0
-172 -201 0
-172 -202 0
-172 -203 0
-172 -204 0
-172 -205 0
-172 -206 0
-172 -207 0
-172 -208 0
-172 -209 0
-172 -210 0
-172 -211 0
-172 -212 0
-172 -213 0
-172 -214 0
-172 -215 0
-172 -216 0
-172 -217 0
-172 -218 0
-172 -219 0
-172 -220 0
-172 -221 0
-172 -222 0
-172 -223 0
-172 -224 0
-172 -225 0
-172 -226 0
-172 -227 0
-172 -228 0
-172 -229 0
-172 -230 0
-172 -231 0
-172 -232 0
-172 -233 0
-172 -234 0
-172 -235 0
-172 -236 0
-172 -237 0
-172 -238 0
-172 -239 0
-172 -240 0
-172 -241 0
-172 -242 0
-172 -243 0
-172 -244 0
-172 -245 0
-172 -246 0
-172 -247 0
-172 -248 0
-173 -174 0
-173 -175 0
-173 -176 0
-173 -177 0
-173 -178 0
-173 -179 0
-173 -180 0
-173 -181 0
-173 -182 0
-173 -183 0
-173 -184 0
-173 -185 0
-173 -186 0
-173 -187 0
-173 -188 0
-173 -189 0
-173 -190 0
-173 -191 0
-173 -192 0
-173 -193 0
-173 -194 0
-173 -195 0
-173 -196 0
-173 -197 0
-173 -198 0
-173 -199 0
-173 -200 0
-173 -201 0
-173 -202 0
-173 -203 0
-173 -204 0
-173 -205 0
-173 -206 0
-173 -207 0
-173 -208 0
-173 -209 0
-173 -210 0
-173 -211 0
-173 -212 0
-173 -213 0
-173 -214 0
-173 -215 0
-173 -216 0
-173 -217 0
-173 -218 0
-173 -219 0
-173 -220 0
-173 -221 0
-173 -222 0
-173 -223 0
-173 -224 0
-173 -225 0
-173 -226 0
-173 -227 0
-173 -228 0
-173 -229 0
-173 -230 0
-173 -231 0
-173 -232 0
-173 -233 0
-173 -234 0
-173 -235 0
-173 -236 0
-173 -237 0
-173 -238 0
-173 -239 0
-173 -240 0
-173 -241 0
-173 -242 0
-173 -243 0
-173 -244 0
-173 -245 0
-173 -246 0
-173 -247 0
-173 -248 0
-174 -175 0
-174 -176 0
-174 -177 0
-174 -178 0
-174 -179 0
-174 -180 0
-174 -181 0
-174 -182 0
-174 -183 0
-174 -184 0
-174 -185 0
-174 -186 0
-174 -187 0
-174 -188 0
-174 -189 0
-174 -190 0
-174 -191 0
-174 -192 0
-174 -193 0
-174 -194 0
-174 -195 0
-174 -196 0
-174 -197 0
-174 -198 0
-174 -199 0
-174 -200 0
-174 -201 0
-174 -202 0
-174 -203 0
-174 -204 0
-174 -205 0
-174 -206 0
-174 -207 0
-174 -208 0
-174 -209 0
-174 -210 0
-174 -211 0
-174 -212 0
-174 -213 0
-174 -214 0
-174 -215 0
-174 -216 0
-174 -217 0
-174 -218 0
-174 -219 0
-174 -220 0
-174 -221 0
-174 -222 0
-174 -223 0
-174 -224 0
-174 -225 0
-174 -226 0
-174 -227 0
-174 -228 0
-174 -229 0
-174 -230 0
-174 -231 0
-174 -232 0
-174 -233 0
-174 -234 0
-174 -235 0
-174 -236 0
-174 -237 0
-174 -238 0
-174 -239 0
-174 -240 0
-174 -241 0
-174 -242 0
-174 -243 0
-174 -244 0
-174 -245 0
-174 -246 0
-174 -247 0
-174 -248 0
-175 -176 0
-175 -177 0
-175 -178 0
-175 -179 0
-175 -180 0
-175 -181 0
-175 -182 0
-175 -183 0
-175 -184 0
-175 -185 0
-175 -186 0
-175 -187 0
-175 -188 0
-175 -189 0
-175 -190 0
-175 -191 0
-175 -192 0
-175 -193 0
-175 -194 0
-175 -195 0
-175 -196 0
-175 -197 0
-175 -198 0
-175 -199 0
-175 -200 0
-175 -201 0
-175 -202 0
-175 -203 0
-175 -204 0
-175 -205 0
-175 -206 0
-175 -207 0
-175 -208 0
-175 -209 0
-175 -210 0
-175 -211 0
-175 -212 0
-175 -213 0
-175 -214 0
-175 -215 0
-175 -216 0
-175 -217 0
-175 -218 0
-175 -219 0
-175 -220 0
-175 -221 0
-175 -222 0
-175 -223 0
-175 -224 0
-175 -225 0
-175 -226 0
-175 -227 0
-175 -228 0
-175 -229 0
-175 -230 0
-175 -231 0
-175 -232 0
-175 -233 0
-175 -234 0
-175 -235 0
-175 -236 0
-175 -237 0
-175 -238 0
-175 -239 0
-175 -240 0
-175 -241 0
-175 -242 0
-175 -243 0
-175 -244 0
-175 -245 0
-175 -246 0
-175 -247 0
-175 -248 0
-176 -177 0
-176 -178 0
-176 -179 0
-176 -180 0
-176 -181 0
-176 -182 0
-176 -183 0
-176 -184 0
-176 -185 0
-176 -186 0
-176 -187 0
-176 -188 0
-176 -189 0
-176 -190 0
-176 -191 0
-176 -192 0
-176 -193 0
-176 -194 0
-176 -195 0
-176 -196 0
-176 -197 0
-176 -198 0
-176 -199 0
-176 -200 0
-176 -201 0
-176 -202 0
-176 -203 0
-176 -204 0
-176 -205 0
-176 -206 0
-176 -207 0
-176 -208 0
-176 -209 0
-176 -210 0
-176 -211 0
-176 -212 0
-176 -213 0
-176 -214 0
-176 -215 0
-176 -216 0
-176 -217 0
-176 -218 0
-176 -219 0
-176 -220 0
-176 -221 0
-176 -222 0
-176 -223 0
-176 -224 0
-176 -225 0
-176 -226 0
-176 -227 0
-176 -228 0
-176 -229 0
-176 -230 0
-176 -231 0
-176 -232 0
-176 -233 0
-176 -234 0
-176 -235 0
-176 -236 0
-176 -237 0
-176 -238 0
-176 -239 0
-176 -240 0
-176 -241 0
-176 -242 0
-176 -243 0
-176 -244 0
-176 -245 0
-176 -246 0
-176 -247 0
-176 -248 0
-177 -178 0
-177 -179 0
-177 -180 0
-177 -181 0
-177 -182 0
-177 -183 0
-177 -184 0
-177 -185 0
-177 -186 0
-177 -187 0
-177 -188 0
-177 -189 0
-177 -190 0
-177 -191 0
-177 -192 0
-177 -193 0
-177 -194 0
-177 -195 0
-177 -196 0
-177 -197 0
-177 -198 0
-177 -199 0
-177 -200 0
-177 -201 0
-177 -202 0
-177 -203 0
-177 -204 0
-177 -205 0
-177 -206 0
-177 -207 0
-177 -208 0
-177 -209 0
-177 -210 0
-177 -211 0
-177 -212 0
-177 -213 0
-177 -214 0
-177 -215 0
-177 -216 0
-177 -217 0
-177 -218 0
-177 -219 0
-177 -220 0
-177 -221 0
-177 -222 0
-177 -223 0
-177 -224 0
-177 -225 0
-177 -226 0
-177 -227 0
-177 -228 0
-177 -229 0
-177 -230 0
-177 -231 0
-177 -232 0
-177 -233 0
-177 -234 0
-177 -235 0
-177 -236 0
-177 -237 0
-177 -238 0
-177 -239 0
-177 -240 0
-177 -241 0
-177 -242 0
-177 -243 0
-177 -244 0
-177 -245 0
-177 -246 0
-177 -247 0
-177 -248 0
-178 -179 0
-178 -180 0
-178 -181 0
-178 -182 0
-178 -183 0
-178 -184 0
-178 -185 0
-178 -186 0
-178 -187 0
-178 -188 0
-178 -189 0
-178 -190 0
-178 -191 0
-178 -192 0
-178 -193 0
-178 -194 0
-178 -195 0
-178 -196 0
-178 -197 0
-178 -198 0
-178 -199 0
-178 -200 0
-178 -201 0
-178 -202 0
-178 -203 0
-178 -204 0
-178 -205 0
-178 -206 0
-178 -207 0
-178 -208 0
-178 -209 0
-178 -210 0
-178 -211 0
-178 -212 0
-178 -213 0
-178 -214 0
-178 -215 0
-178 -216 0
-178 -217 0
-178 -218 0
-178 -219 0
-178 -220 0
-178 -221 0
-178 -222 0
-178 -223 0
-178 -224 0
-178 -225 0
-178 -226 0
-178 -227 0
-178 -228 0
-178 -229 0
-178 -230 0
-178 -231 0
-178 -232 0
-178 -233 0
-178 -234 0
-178 -235 0
-178 -236 0
-178 -237 0
-178 -238 0
-178 -239 0
-178 -240 0
-178 -241 0
-178 -242 0
-178 -243 0
-178 -244 0
-178 -245 0
-178 -246 0
-178 -247 0
-178 -248 0
-179 -180 0
-179 -181 0
-179 -182 0
-179 -183 0
-179 -184 0
-179 -185 0
-179 -186 0
-179 -187 0
-179 -188 0
-179 -189 0
-179 -190 0
-179 -191 0
-179 -192 0
-179 -193 0
-179 -194 0
-179 -195 0
-179 -196 0
-179 -197 0
-179 -198 0
-179 -199 0
-179 -200 0
-179 -201 0
-179 -202 0
-179 -203 0
-179 -204 0
-179 -205 0
-179 -206 0
-179 -207 0
-179 -208 0
-179 -209 0
-179 -210 0
-179 -211 0
-179 -212 0
-179 -213 0
-179 -214 0
-179 -215 0
-179 -216 0
-179 -217 0
-179 -218 0
-179 -219 0
-179 -220 0
-179 -221 0
-179 -222 0
-179 -223 0
-179 -224 0
-179 -225 0
-179 -226 0
-179 -227 0
-179 -228 0
-179 -229 0
-179 -230 0
-179 -231 0
-179 -232 0
-179 -233 0
-179 -234 0
-179 -235 0
-179 -236 0
-179 -237 0
-179 -238 0
-179 -239 0
-179 -240 0
-179 -241 0
-179 -242 0
-179 -243 0
-179 -244 0
-179 -245 0
-179 -246 0
-179 -247 0
-179 -248 0
-180 -181 0
-180 -182 0
-180 -183 0
-180 -184 0
-180 -185 0
-180 -186 0
-180 -187 0
-180 -188 0
-180 -189 0
-180 -190 0
-180 -191 0
-180 -192 0
-180 -193 0
-180 -194 0
-180 -195 0
-180 -196 0
-180 -197 0
-180 -198 0
-180 -199 0
-180 -200 0
-180 -201 0
-180 -202 0
-180 -203 0
-180 -204 0
-180 -205 0
-180 -206 0
-180 -207 0
-180 -208 0
-180 -209 0
-180 -210 0
-180 -211 0
-180 -212 0
-180 -213 0
-180 -214 0
-180 -215 0
-180 -216 0
-180 -217 0
-180 -218 0
-180 -219 0
-180 -220 0
-180 -221 0
-180 -222 0
-180 -223 0
-180 -224 0
-180 -225 0
-180 -226 0
-180 -227 0
-180 -228 0
-180 -229 0
-180 -230 0
-180 -231 0
-180 -232 0
-180 -233 0
-180 -234 0
-180 -235 0
-180 -236 0
-180 -237 0
-180 -238 0
-180 -239 0
-180 -240 0
-180 -241 0
-180 -242 0
-180 -243 0
-180 -244 0
-180 -245 0
-180 -246 0
-180 -247 0
-180 -248 0
-181 -182 0
-181 -183 0
-181 -184 0
-181 -185 0
-181 -186 0
-181 -187 0
-181 -188 0
-181 -189 0
-181 -190 0
-181 -191 0
-181 -192 0
-181 -193 0
-181 -194 0
-181 -195 0
-181 -196 0
-181 -197 0
-181 -198 0
-181 -199 0
-181 -200 0
-181 -201 0
-181 -202 0
-181 -203 0
-181 -204 0
-181 -205 0
-181 -206 0
-181 -207 0
-181 -208 0
-181 -209 0
-181 -210 0
-181 -211 0
-181 -212 0
-181 -213 0
-181 -214 0
-181 -215 0
-181 -216 0
-181 -217 0
-181 -218 0
-181 -219 0
-181 -220 0
-181 -221 0
-181 -222 0
-181 -223 0
-181 -224 0
-181 -225 0
-181 -226 0
-181 -227 0
-181 -228 0
-181 -229 0
-181 -230 0
-181 -231 0
-181 -232 0
-181 -233 0
-181 -234 0
-181 -235 0
-181 -236 0
-181 -237 0
-181 -238 0
-181 -239 0
-181 -240 0
-181 -241 0
-181 -242 0
-181 -243 0
-181 -244 0
-181 -245 0
-181 -246 0
-181 -247 0
-181 -248 0
-182 -183 0
-182 -184 0
-182 -185 0
-182 -186 0
-182 -187 0
-182 -188 0
-182 -189 0
-182 -190 0
-182 -191 0
-182 -192 0
-182 -193 0
-182 -194 0
-182 -195 0
-182 -196 0
-182 -197 0
-182 -198 0
-182 -199 0
-182 -200 0
-182 -201 0
-182 -202 0
-182 -203 0
-182 -204 0
-182 -205 0
-182 -206 0
-182 -207 0
-182 -208 0
-182 -209 0
-182 -210 0
-182 -211 0
-182 -212 0
-182 -213 0
-182 -214 0
-182 -215 0
-182 -216 0
-182 -217 0
-182 -218 0
-182 -219 0
-182 -220 0
-182 -221 0
-182 -222 0
-182 -223 0
-182 -224 0
-182 -225 0
-182 -226 0
-182 -227 0
-182 -228 0
-182 -229 0
-182 -230 0
-182 -231 0
-182 -232 0
-182 -233 0
-182 -234 0
-182 -235 0
-182 -236 0
-182 -237 0
-182 -238 0
-182 -239 0
-182 -240 0
-182 -241 0
-182 -242 0
-182 -243 0
-182 -244 0
-182 -245 0
-182 -246 0
-182 -247 0
-182 -248 0
-183 -184 0
-183 -185 0
-183 -186 0
-183 -187 0
-183 -188 0
-183 -189 0
-183 -190 0
-183 -191 0
-183 -192 0
-183 -193 0
-183 -194 0
-183 -195 0
-183 -196 0
-183 -197 0
-183 -198 0
-183 -199 0
-183 -200 0
-183 -201 0
-183 -202 0
-183 -203 0
-183 -204 0
-183 -205 0
-183 -206 0
-183 -207 0
-183 -208 0
-183 -209 0
-183 -210 0
-183 -211 0
-183 -212 0
-183 -213 0
-183 -214 0
-183 -215 0
-183 -216 0
-183 -217 0
-183 -218 0
-183 -219 0
-183 -220 0
-183 -221 0
-183 -222 0
-183 -223 0
-183 -224 0
-183 -225 0
-183 -226 0
-183 -227 0
-183 -228 0
-183 -229 0
-183 -230 0
-183 -231 0
-183 -232 0
-183 -233 0
-183 -234 0
-183 -235 0
-183 -236 0
-183 -237 0
-183 -238 0
-183 -239 0
-183 -240 0
-183 -241 0
-183 -242 0
-183 -243 0
-183 -244 0
-183 -245 0
-183 -246 0
-183 -247 0
-183 -248 0
-184 -185 0
-184 -186 0
-184 -187 0
-184 -188 0
-184 -189 0
-184 -190 0
-184 -191 0
-184 -192 0
-184 -193 0
-184 -194 0
-184 -195 0
-184 -196 0
-184 -197 0
-184 -198 0
-184 -199 0
-184 -200 0
-184 -201 0
-184 -202 0
-184 -203 0
-184 -204 0
-184 -205 0
-184 -206 0
-184 -207 0
-184 -208 0
-184 -209 0
-184 -210 0
-184 -211 0
-184 -212 0
-184 -213 0
-184 -214 0
-184 -215 0
-184 -216 0
-184 -217 0
-184 -218 0
-184 -219 0
-184 -220 0
-184 -221 0
-184 -222 0
-184 -223 0
-184 -224 0
-184 -225 0
-184 -226 0
-184 -227 0
-184 -228 0
-184 -229 0
-184 -230 0
-184 -231 0
-184 -232 0
-184 -233 0
-184 -234 0
-184 -235 0
-184 -236 0
-184 -237 0
-184 -238 0
-184 -239 0
-184 -240 0
-184 -241 0
-184 -242 0
-184 -243 0
-184 -244 0
-184 -245 0
-184 -246 0
-184 -247 0
-184 -248 0
-185 -186 0
-185 -187 0
-185 -188 0
-185 -189 0
-185 -190 0
-185 -191 0
-185 -192 0
-185 -193 0
-185 -194 0
-185 -195 0
-185 -196 0
-185 -197 0
-185 -198 0
-185 -199 0
-185 -200 0
-185 -201 0
-185 -202 0
-185 -203 0
-185 -204 0
-185 -205 0
-185 -206 0
-185 -207 0
-185 -208 0
-185 -209 0
-185 -210 0
-185 -211 0
-185 -212 0
-185 -213 0
-185 -214 0
-185 -215 0
-185 -216 0
-185 -217 0
-185 -218 0
-185 -219 0
-185 -220 0
-185 -221 0
-185 -222 0
-185 -223 0
-185 -224 0
-185 -225 0
-185 -226 0
-185 -227 0
-185 -228 0
-185 -229 0
-185 -230 0
-185 -231 0
-185 -232 0
-185 -233 0
-185 -234 0
-185 -235 0
-185 -236 0
-185 -237 0
-185 -238 0
-185 -239 0
-185 -240 0
-185 -241 0
-185 -242 0
-185 -243 0
-185 -244 0
-185 -245 0
-185 -246 0
-185 -247 0
-185 -248 0
-186 -187 0
-186 -188 0
-186 -189 0
-186 -190 0
-186 -191 0
-186 -192 0
-186 -193 0
-186 -194 0
-186 -195 0
-186 -196 0
-186 -197 0
-186 -198 0
-186 -199 0
-186 -200 0
-186 -201 0
-186 -202 0
-186 -203 0
-186 -204 0
-186 -205 0
-186 -206 0
-186 -207 0
-186 -208 0
-186 -209 0
-186 -210 0
-186 -211 0
-186 -212 0
-186 -213 0
-186 -214 0
-186 -215 0
-186 -216 0
-186 -217 0
-186 -218 0
-186 -219 0
-186 -220 0
-186 -221 0
-186 -222 0
-186 -223 0
-186 -224 0
-186 -225 0
-186 -226 0
-186 -227 0
-186 -228 0
-186 -229 0
-186 -230 0
-186 -231 0
-186 -232 0
-186 -233 0
-186 -234 0
-186 -235 0
-186 -236 0
-186 -237 0
-186 -238 0
-186 -239 0
-186 -240 0
-186 -241 0
-186 -242 0
-186 -243 0
-186 -244 0
-186 -245 0
-186 -246 0
-186 -247 0
-186 -248 0
-187 -188 0
-187 -189 0
-187 -190 0
-187 -191 0
-187 -192 0
-187 -193 0
-187 -194 0
-187 -195 0
-187 -196 0
-187 -197 0
-187 -198 0
-187 -199 0
-187 -200 0
-187 -201 0
-187 -202 0
-187 -203 0
-187 -204 0
-187 -205 0
-187 -206 0
-187 -207 0
-187 -208 0
-187 -209 0
-187 -210 0
-187 -211 0
-187 -212 0
-187 -213 0
-187 -214 0
-187 -215 0
-187 -216 0
-187 -217 0
-187 -218 0
-187 -219 0
-187 -220 0
-187 -221 0
-187 -222 0
-187 -223 0
-187 -224 0
-187 -225 0
-187 -226 0
-187 -227 0
-187 -228 0
-187 -229 0
-187 -230 0
-187 -231 0
-187 -232 0
-187 -233 0
-187 -234 0
-187 -235 0
-187 -236 0
-187 -237 0
-187 -238 0
-187 -239 0
-187 -240 0
-187 -241 0
-187 -242 0
-187 -243 0
-187 -244 0
-187 -245 0
-187 -246 0
-187 -247 0
-187 -248 0
-188 -189 0
-188 -190 0
-188 -191 0
-188 -192 0
-188 -193 0
-188 -194 0
-188 -195 0
-188 -196 0
-188 -197 0
-188 -198 0
-188 -199 0
-188 -200 0
-188 -201 0
-188 -202 0
-188 -203 0
-188 -204 0
-188 -205 0
-188 -206 0
-188 -207 0
-188 -208 0
-188 -209 0
-188 -210 0
-188 -211 0
-188 -212 0
-188 -213 0
-188 -214 0
-188 -215 0
-188 -216 0
-188 -217 0
-188 -218 0
-188 -219 0
-188 -220 0
-188 -221 0
-188 -222 0
-188 -223 0
-188 -224 0
-188 -225 0
-188 -226 0
-188 -227 0
-188 -228 0
-188 -229 0
-188 -230 0
-188 -231 0
-188 -232 0
-188 -233 0
-188 -234 0
-188 -235 0
-188 -236 0
-188 -237 0
-188 -238 0
-188 -239 0
-188 -240 0
-188 -241 0
-188 -242 0
-188 -243 0
-188 -244 0
-188 -245 0
-188 -246 0
-188 -247 0
-188 -248 0
-189 -190 0
-189 -191 0
-189 -192 0
-189 -193 0
-189 -194 0
-189 -195 0
-189 -196 0
-189 -197 0
-189 -198 0
-189 -199 0
-189 -200 0
-189 -201 0
-189 -202 0
-189 -203 0
-189 -204 0
-189 -205 0
-189 -206 0
-189 -207 0
-189 -208 0
-189 -209 0
-189 -210 0
-189 -211 0
-189 -212 0
-189 -213 0
-189 -214 0
-189 -215 0
-189 -216 0
-189 -217 0
-189 -218 0
-189 -219 0
-189 -220 0
-189 -221 0
-189 -222 0
-189 -223 0
-189 -224 0
-189 -225 0
-189 -226 0
-189 -227 0
-189 -228 0
-189 -229 0
-189 -230 0
-189 -231 0
-189 -232 0
-189 -233 0
-189 -234 0
-189 -235 0
-189 -236 0
-189 -237 0
-189 -238 0
-189 -239 0
-189 -240 0
-189 -241 0
-189 -242 0
-189 -243 0
-189 -244 0
-189 -245 0
-189 -246 0
-189 -247 0
-189 -248 0
-190 -191 0
-190 -192 0
-190 -193 0
-190 -194 0
-190 -195 0
-190 -196 0
-190 -197 0
-190 -198 0
-190 -199 0
-190 -200 0
-190 -201 0
-190 -202 0
-190 -203 0
-190 -204 0
-190 -205 0
-190 -206 0
-190 -207 0
-190 -208 0
-190 -209 0
-190 -210 0
-190 -211 0
-190 -212 0
-190 -213 0
-190 -214 0
-190 -215 0
-190 -216 0
-190 -217 0
-190 -218 0
-190 -219 0
-190 -220 0
-190 -221 0
-190 -222 0
-190 -223 0
-190 -224 0
-190 -225 0
-190 -226 0
-190 -227 0
-190 -228 0
-190 -229 0
-190 -230 0
-190 -231 0
-190 -232 0
-190 -233 0
-190 -234 0
-190 -235 0
-190 -236 0
-190 -237 0
-190 -238 0
-190 -239 0
-190 -240 0
-190 -241 0
-190 -242 0
-190 -243 0
-190 -244 0
-190 -245 0
-190 -246 0
-190 -247 0
-190 -248 0
-191 -192 0
-191 -193 0
-191 -194 0
-191 -195 0
-191 -196 0
-191 -197 0
-191 -198 0
-191 -199 0
-191 -200 0
-191 -201 0
-191 -202 0
-191 -203 0
-191 -204 0
-191 -205 0
-191 -206 0
-191 -207 0
-191 -208 0
-191 -209 0
-191 -210 0
-191 -211 0
-191 -212 0
-191 -213 0
-191 -214 0
-191 -215 0
-191 -216 0
-191 -217 0
-191 -218 0
-191 -219 0
-191 -220 0
-191 -221 0
-191 -222 0
-191 -223 0
-191 -224 0
-191 -225 0
-191 -226 0
-191 -227 0
-191 -228 0
-191 -229 0
-191 -230 0
-191 -231 0
-191 -232 0
-191 -233 0
-191 -234 0
-191 -235 0
-191 -236 0
-191 -237 0
-191 -238 0
-191 -239 0
-191 -240 0
-191 -241 0
-191 -242 0
-191 -243 0
-191 -244 0
-191 -245 0
-191 -246 0
-191 -247 0
-191 -248 0
-192 -193 0
-192 -194 0
-192 -195 0
-192 -196 0
-192 -197 0
-192 -198 0
-192 -199 0
-192 -200 0
-192 -201 0
-192 -202 0
-192 -203 0
-192 -204 0
-192 -205 0
-192 -206 0
-192 -207 0
-192 -208 0
-192 -209 0
-192 -210 0
-192 -211 0
-192 -212 0
-192 -213 0
-192 -214 0
-192 -215 0
-192 -216 0
-192 -217 0
-192 -218 0
-192 -219 0
-192 -220 0
-192 -221 0
-192 -222 0
-192 -223 0
-192 -224 0
-192 -225 0
-192 -226 0
-192 -227 0
-192 -228 0
-192 -229 0
-192 -230 0
-192 -231 0
-192 -232 0
-192 -233 0
-192 -234 0
-192 -235 0
-192 -236 0
-192 -237 0
-192 -238 0
-192 -239 0
-192 -240 0
-192 -241 0
-192 -242 0
-192 -243 0
-192 -244 0
-192 -245 0
-192 -246 0
-192 -247 0
-192 -248 0
-193 -194 0
-193 -195 0
-193 -196 0
-193 -197 0
-193 -198 0
-193 -199 0
-193 -200 0
-193 -201 0
-193 -202 0
-193 -203 0
-193 -204 0
-193 -205 0
-193 -206 0
-193 -207 0
-193 -208 0
-193 -209 0
-193 -210 0
-193 -211 0
-193 -212 0
-193 -213 0
-193 -214 0
-193 -215 0
-193 -216 0
-193 -217 0
-193 -218 0
-193 -219 0
-193 -220 0
-193 -221 0
-193 -222 0
-193 -223 0
-193 -224 0
-193 -225 0
-193 -226 0
-193 -227 0
-193 -228 0
-193 -229 0
-193 -230 0
-193 -231 0
-193 -232 0
-193 -233 0
-193 -234 0
-193 -235 0
-193 -236 0
-193 -237 0
-193 -238 0
-193 -239 0
-193 -240 0
-193 -241 0
-193 -242 0
-193 -243 0
-193 -244 0
-193 -245 0
-193 -246 0
-193 -247 0
-193 -248 0
-194 -195 0
-194 -196 0
-194 -197 0
-194 -198 0
-194 -199 0
-194 -200 0
-194 -201 0
-194 -202 0
-194 -203 0
-194 -204 0
-194 -205 0
-194 -206 0
-194 -207 0
-194 -208 0
-194 -209 0
-194 -210 0
-194 -211 0
-194 -212 0
-194 -213 0
-194 -214 0
-194 -215 0
-194 -216 0
-194 -217 0
-194 -218 0
-194 -219 0
-194 -220 0
-194 -221 0
-194 -222 0
-194 -223 0
-194 -224 0
-194 -225 0
-194 -226 0
-194 -227 0
-194 -228 0
-194 -229 0
-194 -230 0
-194 -231 0
-194 -232 0
-194 -233 0
-194 -234 0
-194 -235 0
-194 -236 0
-194 -237 0
-194 -238 0
-194 -239 0
-194 -240 0
-194 -241 0
-194 -242 0
-194 -243 0
-194 -244 0
-194 -245 0
-194 -246 0
-194 -247 0
-194 -248 0
-195 -196 0
-195 -197 0
-195 -198 0
-195 -199 0
-195 -200 0
-195 -201 0
-195 -202 0
-195 -203 0
-195 -204 0
-195 -205 0
-195 -206 0
-195 -207 0
-195 -208 0
-195 -209 0
-195 -210 0
-195 -211 0
-195 -212 0
-195 -213 0
-195 -214 0
-195 -215 0
-195 -216 0
-195 -217 0
-195 -218 0
-195 -219 0
-195 -220 0
-195 -221 0
-195 -222 0
-195 -223 0
-195 -224 0
-195 -225 0
-195 -226 0
-195 -227 0
-195 -228 0
-195 -229 0
-195 -230 0
-195 -231 0
-195 -232 0
-195 -233 0
-195 -234 0
-195 -235 0
-195 -236 0
-195 -237 0
-195 -238 0
-195 -239 0
-195 -240 0
-195 -241 0
-195 -242 0
-195 -243 0
-195 -244 0
-195 -245 0
-195 -246 0
-195 -247 0
-195 -248 0
-196 -197 0
-196 -198 0
-196 -199 0
-196 -200 0
-196 -201 0
-196 -202 0
-196 -203 0
-196 -204 0
-196 -205 0
-196 -206 0
-196 -207 0
-196 -208 0
-196 -209 0
-196 -210 0
-196 -211 0
-196 -212 0
-196 -213 0
-196 -214 0
-196 -215 0
-196 -216 0
-196 -217 0
-196 -218 0
-196 -219 0
-196 -220 0
-196 -221 0
-196 -222 0
-196 -223 0
-196 -224 0
-196 -225 0
-196 -226 0
-196 -227 0
-196 -228 0
-196 -229 0
-196 -230 0
-196 -231 0
-196 -232 0
-196 -233 0
-196 -234 0
-196 -235 0
-196 -236 0
-196 -237 0
-196 -238 0
-196 -239 0
-196 -240 0
-196 -241 0
-196 -242 0
-196 -243 0
-196 -244 0
-196 -245 0
-196 -246 0
-196 -247 0
-196 -248 0
-197 -198 0
-197 -199 0
-197 -200 0
-197 -201 0
-197 -202 0
-197 -203 0
-197 -204 0
-197 -205 0
-197 -206 0
-197 -207 0
-197 -208 0
-197 -209 0
-197 -210 0
-197 -211 0
-197 -212 0
-197 -213 0
-197 -214 0
-197 -215 0
-197 -216 0
-197 -217 0
-197 -218 0
-197 -219 0
-197 -220 0
-197 -221 0
-197 -222 0
-197 -223 0
-197 -224 0
-197 -225 0
-197 -226 0
-197 -227 0
-197 -228 0
-197 -229 0
-197 -230 0
-197 -231 0
-197 -232 0
-197 -233 0
-197 -234 0
-197 -235 0
-197 -236 0
-197 -237 0
-197 -238 0
-197 -239 0
-197 -240 0
-197 -241 0
-197 -242 0
-197 -243 0
-197 -244 0
-197 -245 0
-197 -246 0
-197 -247 0
-197 -248 0
-198 -199 0
-198 -200 0
-198 -201 0
-198 -202 0
-198 -203 0
-198 -204 0
-198 -205 0
-198 -206 0
-198 -207 0
-198 -208 0
-198 -209 0
-198 -210 0
-198 -211 0
-198 -212 0
-198 -213 0
-198 -214 0
-198 -215 0
-198 -216 0
-198 -217 0
-198 -218 0
-198 -219 0
-198 -220 0
-198 -221 0
-198 -222 0
-198 -223 0
-198 -224 0
-198 -225 0
-198 -226 0
-198 -227 0
-198 -228 0
-198 -229 0
-198 -230 0
-198 -231 0
-198 -232 0
-198 -233 0
-198 -234 0
-198 -235 0
-198 -236 0
-198 -237 0
-198 -238 0
-198 -239 0
-198 -240 0
-198 -241 0
-198 -242 0
-198 -243 0
-198 -244 0
-198 -245 0
-198 -246 0
-198 -247 0
-198 -248 0
-199 -200 0
-199 -201 0
-199 -202 0
-199 -203 0
-199 -204 0
-199 -205 0
-199 -206 0
-199 -207 0
-199 -208 0
-199 -209 0
-199 -210 0
-199 -211 0
-199 -212 0
-199 -213 0
-199 -214 0
-199 -215 0
-199 -216 0
-199 -217 0
-199 -218 0
-199 -219 0
-199 -220 0
-199 -221 0
-199 -222 0
-199 -223 0
-199 -224 0
-199 -225 0
-199 -226 0
-199 -227 0
-199 -228 0
-199 -229 0
-199 -230 0
-199 -231 0
-199 -232 0
-199 -233 0
-199 -234 0
-199 -235 0
-199 -236 0
-199 -237 0
-199 -238 0
-199 -239 0
-199 -240 0
-199 -241 0
-199 -242 0
-199 -243 0
-199 -244 0
-199 -245 0
-199 -246 0
-199 -247 0
-199 -248 0
-200 -201 0
-200 -202 0
-200 -203 0
-200 -204 0
-200 -205 0
-200 -206 0
-200 -207 0
-200 -208 0
-200 -209 0
-200 -210 0
-200 -211 0
-200 -212 0
-200 -213 0
-200 -214 0
-200 -215 0
-200 -216 0
-200 -217 0
-200 -218 0
-200 -219 0
-200 -220 0
-200 -221 0
-200 -222 0
-200 -223 0
-200 -224 0
-200 -225 0
-200 -226 0
-200 -227 0
-200 -228 0
-200 -229 0
-200 -230 0
-200 -231 0
-200 -232 0
-200 -233 0
-200 -234 0
-200 -235 0
-200 -236 0
-200 -237 0
-200 -238 0
-200 -239 0
-200 -240 0
-200 -241 0
-200 -242 0
-200 -243 0
-200 -244 0
-200 -245 0
-200 -246 0
-200 -247 0
-200 -248 0
-201 -202 0
-201 -203 0
-201 -204 0
-201 -205 0
-201 -206 0
-201 -207 0
-201 -208 0
-201 -209 0
-201 -210 0
-201 -211 0
-201 -212 0
-201 -213 0
-201 -214 0
-201 -215 0
-201 -216 0
-201 -217 0
-201 -218 0
-201 -219 0
-201 -220 0
-201 -221 0
-201 -222 0
-201 -223 0
-201 -224 0
-201 -225 0
-201 -226 0
-201 -227 0
-201 -228 0
-201 -229 0
-201 -230 0
-201 -231 0
-201 -232 0
-201 -233 0
-201 -234 0
-201 -235 0
-201 -236 0
-201 -237 0
-201 -238 0
-201 -239 0
-201 -240 0
-201 -241 0
-201 -242 0
-201 -243 0
-201 -244 0
-201 -245 0
-201 -246 0
-201 -247 0
-201 -248 0
-202 -203 0
-202 -204 0
-202 -205 0
-202 -206 0
-202 -207 0
-202 -208 0
-202 -209 0
-202 -210 0
-202 -211 0
-202 -212 0
-202 -213 0
-202 -214 0
-202 -215 0
-202 -216 0
-202 -217 0
-202 -218 0
-202 -219 0
-202 -220 0
-202 -221 0
-202 -222 0
-202 -223 0
-202 -224 0
-202 -225 0
-202 -226 0
-202 -227 0
-202 -228 0
-202 -229 0
-202 -230 0
-202 -231 0
-202 -232 0
-202 -233 0
-202 -234 0
-202 -235 0
-202 -236 0
-202 -237 0
-202 -238 0
-202 -239 0
-202 -240 0
-202 -241 0
-202 -242 0
-202 -243 0
-202 -244 0
-202 -245 0
-202 -246 0
-202 -247 0
-202 -248 0
-203 -204 0
-203 -205 0
-203 -206 0
-203 -207 0
-203 -208 0
-203 -209 0
-203 -210 0
-203 -211 0
-203 -212 0
-203 -213 0
-203 -214 0
-203 -215 0
-203 -216 0
-203 -217 0
-203 -218 0
-203 -219 0
-203 -220 0
-203 -221 0
-203 -222 0
-203 -223 0
-203 -224 0
-203 -225 0
-203 -226 0
-203 -227 0
-203 -228 0
-203 -229 0
-203 -230 0
-203 -231 0
-203 -232 0
-203 -233 0
-203 -234 0
-203 -235 0
-203 -236 0
-203 -237 0
-203 -238 0
-203 -239 0
-203 -240 0
-203 -241 0
-203 -242 0
-203 -243 0
-203 -244 0
-203 -245 0
-203 -246 0
-203 -247 0
-203 -248 0
-204 -205 0
-204 -206 0
-204 -207 0
-204 -208 0
-204 -209 0
-204 -210 0
-204 -211 0
-204 -212 0
-204 -213 0
-204 -214 0
-204 -215 0
-204 -216 0
-204 -217 0
-204 -218 0
-204 -219 0
-204 -220 0
-204 -221 0
-204 -222 0
-204 -223 0
-204 -224 0
-204 -225 0
-204 -226 0
-204 -227 0
-204 -228 0
-204 -229 0
-204 -230 0
-204 -231 0
-204 -232 0
-204 -233 0
-204 -234 0
-204 -235 0
-204 -236 0
-204 -237 0
-204 -238 0
-204 -239 0
-204 -240 0
-204 -241 0
-204 -242 0
-204 -243 0
-204 -244 0
-204 -245 0
-204 -246 0
-204 -247 0
-204 -248 0
-205 -206 0
-205 -207 0
-205 -208 0
-205 -209 0
-205 -210 0
-205 -211 0
-205 -212 0
-205 -213 0
-205 -214 0
-205 -215 0
-205 -216 0
-205 -217 0
-205 -218 0
-205 -219 0
-205 -220 0
-205 -221 0
-205 -222 0
-205 -223 0
-205 -224 0
-205 -225 0
-205 -226 0
-205 -227 0
-205 -228 0
-205 -229 0
-205 -230 0
-205 -231 0
-205 -232 0
-205 -233 0
-205 -234 0
-205 -235 0
-205 -236 0
-205 -237 0
-205 -238 0
-205 -239 0
-205 -240 0
-205 -241 0
-205 -242 0
-205 -243 0
-205 -244 0
-205 -245 0
-205 -246 0
-205 -247 0
-205 -248 0
-206 -207 0
-206 -208 0
-206 -209 0
-206 -210 0
-206 -211 0
-206 -212 0
-206 -213 0
-206 -214 0
-206 -215 0
-206 -216 0
-206 -217 0
-206 -218 0
-206 -219 0
-206 -220 0
-206 -221 0
-206 -222 0
-206 -223 0
-206 -224 0
-206 -225 0
-206 -226 0
-206 -227 0
-206 -228 0
-206 -229 0
-206 -230 0
-206 -231 0
-206 -232 0
-206 -233 0
-206 -234 0
-206 -235 0
-206 -236 0
-206 -237 0
-206 -238 0
-206 -239 0
-206 -240 0
-206 -241 0
-206 -242 0
-206 -243 0
-206 -244 0
-206 -245 0
-206 -246 0
-206 -247 0
-206 -248 0
-207 -208 0
-207 -209 0
-207 -210 0
-207 -211 0
-207 -212 0
-207 -213 0
-207 -214 0
-207 -215 0
-207 -216 0
-207 -217 0
-207 -218 0
-207 -219 0
-207 -220 0
-207 -221 0
-207 -222 0
-207 -223 0
-207 -224 0
-207 -225 0
-207 -226 0
-207 -227 0
-207 -228 0
-207 -229 0
-207 -230 0
-207 -231 0
-207 -232 0
-207 -233 0
-207 -234 0
-207 -235 0
-207 -236 0
-207 -237 0
-207 -238 0
-207 -239 0
-207 -240 0
-207 -241 0
-207 -242 0
-207 -243 0
-207 -244 0
-207 -245 0
-207 -246 0
-207 -247 0
-207 -248 0
-208 -209 0
-208 -210 0
-208 -211 0
-208 -212 0
-208 -213 0
-208 -214 0
-208 -215 0
-208 -216 0
-208 -217 0
-208 -218 0
-208 -219 0
-208 -220 0
-208 -221 0
-208 -222 0
-208 -223 0
-208 -224 0
-208 -225 0
-208 -226 0
-208 -227 0
-208 -228 0
-208 -229 0
-208 -230 0
-208 -231 0
-208 -232 0
-208 -233 0
-208 -234 0
-208 -235 0
-208 -236 0
-208 -237 0
-208 -238 0
-208 -239 0
-208 -240 0
-208 -241 0
-208 -242 0
-208 -243 0
-208 -244 0
-208 -245 0
-208 -246 0
-208 -247 0
-208 -248 0
-209 -210 0
-209 -211 0
-209 -212 0
-209 -213 0
-209 -214 0
-209 -215 0
-209 -216 0
-209 -217 0
-209 -218 0
-209 -219 0
-209 -220 0
-209 -221 0
-209 -222 0
-209 -223 0
-209 -224 0
-209 -225 0
-209 -226 0
-209 -227 0
-209 -228 0
-209 -229 0
-209 -230 0
-209 -231 0
-209 -232 0
-209 -233 0
-209 -234 0
-209 -235 0
-209 -236 0
-209 -237 0
-209 -238 0
-209 -239 0
-209 -240 0
-209 -241 0
-209 -242 0
-209 -243 0
-209 -244 0
-209 -245 0
-209 -246 0
-209 -247 0
-209 -248 0
-210 -211 0
-210 -212 0
-210 -213 0
-210 -214 0
-210 -215 0
-210 -216 0
-210 -217 0
-210 -218 0
-210 -219 0
-210 -220 0
-210 -221 0
-210 -222 0
-210 -223 0
-210 -224 0
-210 -225 0
-210 -226 0
-210 -227 0
-210 -228 0
-210 -229 0
-210 -230 0
-210 -231 0
-210 -232 0
-210 -233 0
-210 -234 0
-210 -235 0
-210 -236 0
-210 -237 0
-210 -238 0
-210 -239 0
-210 -240 0
-210 -241 0
-210 -242 0
-210 -243 0
-210 -244 0
-210 -245 0
-210 -246 0
-210 -247 0
-210 -248 0
-211 -212 0
-211 -213 0
-211 -214 0
-211 -215 0
-211 -216 0
-211 -217 0
-211 -218 0
-211 -219 0
-211 -220 0
-211 -221 0
-211 -222 0
-211 -223 0
-211 -224 0
-211 -225 0
-211 -226 0
-211 -227 0
-211 -228 0
-211 -229 0
-211 -230 0
-211 -231 0
-211 -232 0
-211 -233 0
-211 -234 0
-211 -235 0
-211 -236 0
-211 -237 0
-211 -238 0
-211 -239 0
-211 -240 0
-211 -241 0
-211 -242 0
-211 -243 0
-211 -244 0
-211 -245 0
-211 -246 0
-211 -247 0
-211 -248 0
-212 -213 0
-212 -214 0
-212 -215 0
-212 -216 0
-212 -217 0
-212 -218 0
-212 -219 0
-212 -220 0
-212 -221 0
-212 -222 0
-212 -223 0
-212 -224 0
-212 -225 0
-212 -226 0
-212 -227 0
-212 -228 0
-212 -229 0
-212 -230 0
-212 -231 0
-212 -232 0
-212 -233 0
-212 -234 0
-212 -235 0
-212 -236 0
-212 -237 0
-212 -238 0
-212 -239 0
-212 -240 0
-212 -241 0
-212 -242 0
-212 -243 0
-212 -244 0
-212 -245 0
-212 -246 0
-212 -247 0
-212 -248 0
-213 -214 0
-213 -215 0
-213 -216 0
-213 -217 0
-213 -218 0
-213 -219 0
-213 -220 0
-213 -221 0
-213 -222 0
-213 -223 0
-213 -224 0
-213 -225 0
-213 -226 0
-213 -227 0
-213 -228 0
-213 -229 0
-213 -230 0
-213 -231 0
-213 -232 0
-213 -233 0
-213 -234 0
-213 -235 0
-213 -236 0
-213 -237 0
-213 -238 0
-213 -239 0
-213 -240 0
-213 -241 0
-213 -242 0
-213 -243 0
-213 -244 0
-213 -245 0
-213 -246 0
-213 -247 0
-213 -248 0
-214 -215 0
-214 -216 0
-214 -217 0
-214 -218 0
-214 -219 0
-214 -220 0
-214 -221 0
-214 -222 0
-214 -223 0
-214 -224 0
-214 -225 0
-214 -226 0
-214 -227 0
-214 -228 0
-214 -229 0
-214 -230 0
-214 -231 0
-214 -232 0
-214 -233 0
-214 -234 0
-214 -235 0
-214 -236 0
-214 -237 0
-214 -238 0
-214 -239 0
-214 -240 0
-214 -241 0
-214 -242 0
-214 -243 0
-214 -244 0
-214 -245 0
-214 -246 0
-214 -247 0
-214 -248 0
-215 -216 0
-215 -217 0
-215 -218 0
-215 -219 0
-215 -220 0
-215 -221 0
-215 -222 0
-215 -223 0
-215 -224 0
-215 -225 0
-215 -226 0
-215 -227 0
-215 -228 0
-215 -229 0
-215 -230 0
-215 -231 0
-215 -232 0
-215 -233 0
-215 -234 0
-215 -235 0
-215 -236 0
-215 -237 0
-215 -238 0
-215 -239 0
-215 -240 0
-215 -241 0
-215 -242 0
-215 -243 0
-215 -244 0
-215 -245 0
-215 -246 0
-215 -247 0
-215 -248 0
-216 -217 0
-216 -218 0
-216 -219 0
-216 -220 0
-216 -221 0
-216 -222 0
-216 -223 0
-216 -224 0
-216 -225 0
-216 -226 0
-216 -227 0
-216 -228 0
-216 -229 0
-216 -230 0
-216 -231 0
-216 -232 0
-216 -233 0
-216 -234 0
-216 -235 0
-216 -236 0
-216 -237 0
-216 -238 0
-216 -239 0
-216 -240 0
-216 -241 0
-216 -242 0
-216 -243 0
-216 -244 0
-216 -245 0
-216 -246 0
-216 -247 0
-216 -248 0
-217 -218 0
-217 -219 0
-217 -220 0
-217 -221 0
-217 -222 0
-217 -223 0
-217 -224 0
-217 -225 0
-217 -226 0
-217 -227 0
-217 -228 0
-217 -229 0
-217 -230 0
-217 -231 0
-217 -232 0
-217 -233 0
-217 -234 0
-217 -235 0
-217 -236 0
-217 -237 0
-217 -238 0
-217 -239 0
-217 -240 0
-217 -241 0
-217 -242 0
-217 -243 0
-217 -244 0
-217 -245 0
-217 -246 0
-217 -247 0
-217 -248 0
-218 -219 0
-218 -220 0
-218 -221 0
-218 -222 0
-218 -223 0
-218 -224 0
-218 -225 0
-218 -226 0
-218 -227 0
-218 -228 0
-218 -229 0
-218 -230 0
-218 -231 0
-218 -232 0
-218 -233 0
-218 -234 0
-218 -235 0
-218 -236 0
-218 -237 0
-218 -238 0
-218 -239 0
-218 -240 0
-218 -241 0
-218 -242 0
-218 -243 0
-218 -244 0
-218 -245 0
-218 -246 0
-218 -247 0
-218 -248 0
-219 -220 0
-219 -221 0
-219 -222 0
-219 -223 0
-219 -224 0
-219 -225 0
-219 -226 0
-219 -227 0
-219 -228 0
-219 -229 0
-219 -230 0
-219 -231 0
-219 -232 0
-219 -233 0
-219 -234 0
-219 -235 0
-219 -236 0
-219 -237 0
-219 -238 0
-219 -239 0
-219 -240 0
-219 -241 0
-219 -242 0
-219 -243 0
-219 -244 0
-219 -245 0
-219 -246 0
-219 -247 0
-219 -248 0
-220 -221 0
-220 -222 0
-220 -223 0
-220 -224 0
-220 -225 0
-220 -226 0
-220 -227 0
-220 -228 0
-220 -229 0
-220 -230 0
-220 -231 0
-220 -232 0
-220 -233 0
-220 -234 0
-220 -235 0
-220 -236 0
-220 -237 0
-220 -238 0
-220 -239 0
-220 -240 0
-220 -241 0
-220 -242 0
-220 -243 0
-220 -244 0
-220 -245 0
-220 -246 0
-220 -247 0
-220 -248 0
-221 -222 0
-221 -223 0
-221 -224 0
-221 -225 0
-221 -226 0
-221 -227 0
-221 -228 0
-221 -229 0
-221 -230 0
-221 -231 0
-221 -232 0
-221 -233 0
-221 -234 0
-221 -235 0
-221 -236 0
-221 -237 0
-221 -238 0
-221 -239 0
-221 -240 0
-221 -241 0
-221 -242 0
-221 -243 0
-221 -244 0
-221 -245 0
-221 -246 0
-221 -247 0
-221 -248 0
-222 -223 0
-222 -224 0
-222 -225 0
-222 -226 0
-222 -227 0
-222 -228 0
-222 -229 0
-222 -230 0
-222 -231 0
-222 -232 0
-222 -233 0
-222 -234 0
-222 -235 0
-222 -236 0
-222 -237 0
-222 -238 0
-222 -239 0
-222 -240 0
-222 -241 0
-222 -242 0
-222 -243 0
-222 -244 0
-222 -245 0
-222 -246 0
-222 -247 0
-222 -248 0
-223 -224 0
-223 -225 0
-223 -226 0
-223 -227 0
-223 -228 0
-223 -229 0
-223 -230 0
-223 -231 0
-223 -232 0
-223 -233 0
-223 -234 0
-223 -235 0
-223 -236 0
-223 -237 0
-223 -238 0
-223 -239 0
-223 -240 0
-223 -241 0
-223 -242 0
-223 -243 0
-223 -244 0
-223 -245 0
-223 -246 0
-223 -247 0
-223 -248 0
-224 -225 0
-224 -226 0
-224 -227 0
-224 -228 0
-224 -229 0
-224 -230 0
-224 -231 0
-224 -232 0
-224 -233 0
-224 -234 0
-224 -235 0
-224 -236 0
-224 -237 0
-224 -238 0
-224 -239 0
-224 -240 0
-224 -241 0
-224 -242 0
-224 -243 0
-224 -244 0
-224 -245 0
-224 -246 0
-224 -247 0
-224 -248 0
-225 -226 0
-225 -227 0
-225 -228 0
-225 -229 0
-225 -230 0
-225 -231 0
-225 -232 0
-225 -233 0
-225 -234 0
-225 -235 0
-225 -236 0
-225 -237 0
-225 -238 0
-225 -239 0
-225 -240 0
-225 -241 0
-225 -242 0
-225 -243 0
-225 -244 0
-225 -245 0
-225 -246 0
-225 -247 0
-225 -248 0
-226 -227 0
-226 -228 0
-226 -229 0
-226 -230 0
-226 -231 0
-226 -232 0
-226 -233 0
-226 -234 0
-226 -235 0
-226 -236 0
-226 -237 0
-226 -238 0
-226 -239 0
-226 -240 0
-226 -241 0
-226 -242 0
-226 -243 0
-226 -244 0
-226 -245 0
-226 -246 0
-226 -247 0
-226 -248 0
-227 -228 0
-227 -229 0
-227 -230 0
-227 -231 0
-227 -232 0
-227 -233 0
-227 -234 0
-227 -235 0
-227 -236 0
-227 -237 0
-227 -238 0
-227 -239 0
-227 -240 0
-227 -241 0
-227 -242 0
-227 -243 0
-227 -244 0
-227 -245 0
-227 -246 0
-227 -247 0
-227 -248 0
-228 -229 0
-228 -230 0
-228 -231 0
-228 -232 0
-228 -233 0
-228 -234 0
-228 -235 0
-228 -236 0
-228 -237 0
-228 -238 0
-228 -239 0
-228 -240 0
-228 -241 0
-228 -242 0
-228 -243 0
-228 -244 0
-228 -245 0
-228 -246 0
-228 -247 0
-228 -248 0
-229 -230 0
-229 -231 0
-229 -232 0
-229 -233 0
-229 -234 0
-229 -235 0
-229 -236 0
-229 -237 0
-229 -238 0
-229 -239 0
-229 -240 0
-229 -241 0
-229 -242 0
-229 -243 0
-229 -244 0
-229 -245 0
-229 -246 0
-229 -247 0
-229 -248 0
-230 -231 0
-230 -232 0
-230 -233 0
-230 -234 0
-230 -235 0
-230 -236 0
-230 -237 0
-230 -238 0
-230 -239 0
-230 -240 0
-230 -241 0
-230 -242 0
-230 -243 0
-230 -244 0
-230 -245 0
-230 -246 0
-230 -247 0
-230 -248 0
-231 -232 0
-231 -233 0
-231 -234 0
-231 -235 0
-231 -236 0
-231 -237 0
-231 -238 0
-231 -239 0
-231 -240 0
-231 -241 0
-231 -242 0
-231 -243 0
-231 -244 0
-231 -245 0
-231 -246 0
-231 -247 0
-231 -248 0
-232 -233 0
-232 -234 0
-232 -235 0
-232 -236 0
-232 -237 0
-232 -238 0
-232 -239 0
-232 -240 0
-232 -241 0
-232 -242 0
-232 -243 0
-232 -244 0
-232 -245 0
-232 -246 0
-232 -247 0
-232 -248 0
-233 -234 0
-233 -235 0
-233 -236 0
-233 -237 0
-233 -238 0
-233 -239 0
-233 -240 0
-233 -241 0
-233 -242 0
-233 -243 0
-233 -244 0
-233 -245 0
-233 -246 0
-233 -247 0
-233 -248 0
-234 -235 0
-234 -236 0
-234 -237 0
-234 -238 0
-234 -239 0
-234 -240 0
-234 -241 0
-234 -242 0
-234 -243 0
-234 -244 0
-234 -245 0
-234 -246 0
-234 -247 0
-234 -248 0
-235 -236 0
-235 -237 0
-235 -238 0
-235 -239 0
-235 -240 0
-235 -241 0
-235 -242 0
-235 -243 0
-235 -244 0
-235 -245 0
-235 -246 0
-235 -247 0
-235 -248 0
-236 -237 0
-236 -238 0
-236 -239 0
-236 -240 0
-236 -241 0
-236 -242 0
-236 -243 0
-236 -244 0
-236 -245 0
-236 -246 0
-236 -247 0
-236 -248 0
-237 -238 0
-237 -239 0
-237 -240 0
-237 -241 0
-237 -242 0
-237 -243 0
-237 -244 0
-237 -245 0
-237 -246 0
-237 -247 0
-237 -248 0
-238 -239 0
-238 -240 0
-238 -241 0
-238 -242 0
-238 -243 0
-238 -244 0
-238 -245 0
-238 -246 0
-238 -247 0
-238 -248 0
-239 -240 0
-239 -241 0
-239 -242 0
-239 -243 0
-239 -244 0
-239 -245 0
-239 -246 0
-239 -247 0
-239 -248 0
-240 -241 0
-240 -242 0
-240 -243 0
-240 -244 0
-240 -245 0
-240 -246 0
-240 -247 0
-240 -248 0
-241 -242 0
-241 -243 0
-241 -244 0
-241 -245 0
-241 -246 0
-241 -247 0
-241 -248 0
-242 -243 0
-242 -244 0
-242 -245 0
-242 -246 0
-242 -247 0
-242 -248 0
-243 -244 0
-243 -245 0
-243 -246 0
-243 -247 0
-243 -248 0
-244 -245 0
-244 -246 0
-244 -247 0
-244 -248 0
-245 -246 0
-245 -247 0
-245 -248 0
-246 -247 0
-246 -248 0
-247 -248 0
-1 165 166 167 168 169 170 171 172 173 174 175 176 177 178 179 180 181 182 183 184 185 186 187 188 42 0
-2 165 166 167 168 169 170 171 172 173 174 175 176 177 178 179 180 181 182 183 184 185 186 187 188 43 0
-3 165 166 167 168 169 170 171 172 173 174 175 176 177 178 179 180 181 182 183 184 185 186 187 188 44 0
-4 165 166 167 168 169 170 171 172 173 174 175 176 177 178 179 180 181 182 183 184 185 186 187 188 45 0
-5 165 166 167 168 169 170 171 172 173 174 175 176 177 178 179 180 181 182 183 184 185 186 187 188 46 0
-6 165 166 167 168 169 170 171 172 173 174 175 176 177 178 179 180 181 182 183 184 185 186 187 188 47 0
-7 165 166 167 168 169 170 171 172 173 174 175 176 177 178 179 180 181 182 183 184 185 186 187 188 48 0
-8 165 166 167 168 169 170 171 172 173 174 175 176 177 178 179 180 181 182 183 184 185 186 187 188 49 0
-9 165 166 167 168 169 170 171 172 173 174 175 176 177 178 179 180 181 182 183 184 185 186 187 188 50 0
-10 165 166 167 168 169 170 171 172 173 174 175 176 177 178 179 180 181 182 183 184 185 186 187 188 51 0
-12 189 190 191 192 193 194 195 196 197 198 199 200 201 202 203 204 205 206 207 208 209 210 211 212 53 0
-13 189 190 191 192 193 194 195 196 197 198 199 200 201 202 203 204 205 206 207 208 209 210 211 212 54 0
-14 189 190 191 192 193 194 195 196 197 198 199 200 201 202 203 204 205 206 207 208 209 210 211 212 55 0
-15 189 190 191 192 193 194 195 196 197 198 199 200 201 202 203 204 205 206 207 208 209 210 211 212 56 0
-16 189 190 191 192 193 194 195 196 197 198 199 200 201 202 203 204 205 206 207 208 209 210 211 212 57 0
-17 189 190 191 192 193 194 195 196 197 198 199 200 201 202 203 204 205 206 207 208 209 210 211 212 58 0
-18 189 190 191 192 193 194 195 196 197 198 199 200 201 202 203 204 205 206 207 208 209 210 211 212 59 0
-19 189 190 191 192 193 194 195 196 197 198 199 200 201 202 203 204 205 206 207 208 209 210 211 212 60 0
-20 189 190 191 192 193 194 195 196 197 198 199 200 201 202 203 204 205 206 207 208 209 210 211 212 61 0
-21 189 190 191 192 193 194 195 196 197 198 199 200 201 202 203 204 205 206 207 208 209 210 211 212 62 0
-23 213 214 215 216 217 218 219 220 221 222 223 224 225 226 227 228 229 230 231 232 64 0
-24 213 214 215 216 217 218 219 220 221 222 223 224 225 226 227 228 229 230 231 232 65 0
-25 213 214 215 216 217 218 219 220 221 222 223 224 225 226 227 228 229 230 231 232 66 0
-26 213 214 215 216 217 218 219 220 221 222 223 224 225 226 227 228 229 230 231 232 67 0
-27 213 214 215 216 217 218 219 220 221 222 223 224 225 226 227 228 229 230 231 232 68 0
-28 213 214 215 216 217 218 219 220 221 222 223 224 225 226 227 228 229 230 231 232 69 0
-29 213 214 215 216 217 218 219 220 221 222 223 224 225 226 227 228 229 230 231 232 70 0
-30 213 214 215 216 217 218 219 220 221 222 223 224 225 226 227 228 229 230 231 232 71 0
-31 213 214 215 216 217 218 219 220 221 222 223 224 225 226 227 228 229 230 231 232 72 0
-33 233 234 235 236 237 238 239 240 241 242 243 244 245 246 247 248 74 0
-34 233 234 235 236 237 238 239 240 241 242 243 244 245 246 247 248 75 0
-35 233 234 235 236 237 238 239 240 241 242 243 244 245 246 247 248 76 0
-36 233 234 235 236 237 238 239 240 241 242 243 244 245 246 247 248 77 0
-37 233 234 235 236 237 238 239 240 241 242 243 244 245 246 247 248 78 0
-38 233 234 235 236 237 238 239 240 241 242 243 244 245 246 247 248 79 0
-39 233 234 235 236 237 238 239 240 241 242 243 244 245 246 247 248 80 0
-40 233 234 235 236 237 238 239 240 241 242 243 244 245 246 247 248 81 0
-249 52 0
-249 83 0
-249 89 0
-250 52 0
-250 63 0
-250 53 0
-250 -59 90 0
-250 -60 91 0
-250 -61 92 0
-250 83 0
-251 52 0
-251 73 0
-251 64 0
-251 -69 90 0
-251 -70 91 0
-251 -71 92 0
-251 83 0
-252 52 0
-252 82 0
-252 74 0
-252 -78 90 0
-252 -79 91 0
-252 -80 92 0
-252 83 0
-253 52 0
-253 84 0
-253 89 0
-254 52 0
-254 63 0
-254 54 0
-254 -59 90 0
-254 -60 91 0
-254 -61 92 0
-254 84 0
-255 52 0
-255 73 0
-255 64 65 0
-255 -69 90 0
-255 -70 91 0
-255 -71 92 0
-255 84 0
-256 52 0
-256 82 0
-256 74 75 0
-256 -78 90 0
-256 -79 91 0
-256 -80 92 0
-256 84 0
-257 52 0
-257 85 0
-257 89 0
-258 52 0
-258 63 0
-258 55 0
-258 -59 90 0
-258 -60 91 0
-258 -61 92 0
-258 85 0
-259 52 0
-259 73 0
-259 65 66 0
-259 -69 90 0
-259 -70 91 0
-259 -71 92 0
-259 85 0
-260 52 0
-260 82 0
-260 74 75 76 0
-260 -78 90 0
-260 -79 91 0
-260 -80 92 0
-260 85 0
-261 52 0
-261 86 0
-261 89 0
-262 52 0
-262 63 0
-262 56 0
-262 -59 90 0
-262 -60 91 0
-262 -61 92 0
-262 86 0
-263 52 0
-263 73 0
-263 66 67 0
-263 -69 90 0
-263 -70 91 0
-263 -71 92 0
-263 86 0
-264 52 0
-264 82 0
-264 75 76 77 0
-264 -78 90 0
-264 -79 91 0
-264 -80 92 0
-264 86 0
-265 52 0
-265 87 0
-265 89 0
-266 52 0
-266 63 0
-266 57 0
-266 -59 90 0
-266 -60 91 0
-266 -61 92 0
-266 87 0
-267 52 0
-267 73 0
-267 67 68 0
-267 -69 90 0
-267 -70 91 0
-267 -71 92 0
-267 87 0
-268 52 0
-268 82 0
-268 76 77 0
-268 -78 90 0
-268 -79 91 0
-268 -80 92 0
-268 87 0
-269 52 0
-269 88 0
-269 89 0
-270 52 0
-270 63 0
-270 58 0
-270 -59 90 0
-270 -60 91 0
-270 -61 92 0
-270 88 0
-271 52 0
-271 73 0
-271 68 0
-271 -69 90 0
-271 -70 91 0
-271 -71 92 0
-271 88 0
-272 52 0
-272 82 0
-272 77 0
-272 -78 90 0
-272 -79 91 0
-272 -80 92 0
-272 88 0
-273 63 0
-273 94 0
-273 100 0
-274 63 0
-274 52 0
-274 42 0
-274 -48 101 0
-274 -49 102 0
-274 -50 103 0
-274 94 0
-275 63 0
-275 73 0
-275 64 0
-275 -69 101 0
-275 -70 102 0
-275 -71 103 0
-275 94 0
-276 63 0
-276 82 0
-276 74 0
-276 -78 101 0
-276 -79 102 0
-276 -80 103 0
-276 94 0
-277 63 0
-277 95 0
-277 100 0
-278 63 0
-278 52 0
-278 43 0
-278 -48 101 0
-278 -49 102 0
-278 -50 103 0
-278 95 0
-279 63 0
-279 73 0
-279 64 65 0
-279 -69 101 0
-279 -70 102 0
-279 -71 103 0
-279 95 0
-280 63 0
-280 82 0
-280 74 75 0
-280 -78 101 0
-280 -79 102 0
-280 -80 103 0
-280 95 0
-281 63 0
-281 96 0
-281 100 0
-282 63 0
-282 52 0
-282 44 0
-282 -48 101 0
-282 -49 102 0
-282 -50 103 0
-282 96 0
-283 63 0
-283 73 0
-283 65 66 0
-283 -69 101 0
-283 -70 102 0
-283 -71 103 0
-283 96 0
-284 63 0
-284 82 0
-284 74 75 76 0
-284 -78 101 0
-284 -79 102 0
-284 -80 103 0
-284 96 0
-285 63 0
-285 97 0
-285 100 0
-286 63 0
-286 52 0
-286 45 0
-286 -48 101 0
-286 -49 102 0
-286 -50 103 0
-286 97 0
-287 63 0
-287 73 0
-287 66 67 0
-287 -69 101 0
-287 -70 102 0
-287 -71 103 0
-287 97 0
-288 63 0
-288 82 0
-288 75 76 77 0
-288 -78 101 0
-288 -79 102 0
-288 -80 103 0
-288 97 0
-289 63 0
-289 98 0
-289 100 0
-290 63 0
-290 52 0
-290 46 0
-290 -48 101 0
-290 -49 102 0
-290 -50 103 0
-290 98 0
-291 63 0
-291 73 0
-291 67 68 0
-291 -69 101 0
-291 -70 102 0
-291 -71 103 0
-291 98 0
-292 63 0
-292 82 0
-292 76 77 0
-292 -78 101 0
-292 -79 102 0
-292 -80 103 0
-292 98 0
-293 63 0
-293 99 0
-293 100 0
-294 63 0
-294 52 0
-294 47 0
-294 -48 101 0
-294 -49 102 0
-294 -50 103 0
-294 99 0
-295 63 0
-295 73 0
-295 68 0
-295 -69 101 0
-295 -70 102 0
-295 -71 103 0
-295 99 0
-296 63 0
-296 82 0
-296 77 0
-296 -78 101 0
-296 -79 102 0
-296 -80 103 0
-296 99 0
-297 73 0
-297 105 0
-297 110 0
-298 73 0
-298 52 0
-298 42 43 0
-298 -48 111 0
-298 -49 112 0
-298 -50 113 0
-298 105 0
-299 73 0
-299 63 0
-299 53 54 0
-299 -59 111 0
-299 -60 112 0
-299 -61 113 0
-299 105 0
-300 73 0
-300 82 0
-300 74 75 0
-300 -78 111 0
-300 -79 112 0
-300 -80 113 0
-300 105 0
-301 73 0
-301 106 0
-301 110 0
-302 73 0
-302 52 0
-302 43 44 0
-302 -48 111 0
-302 -49 112 0
-302 -50 113 0
-302 106 0
-303 73 0
-303 63 0
-303 54 55 0
-303 -59 111 0
-303 -60 112 0
-303 -61 113 0
-303 106 0
-304 73 0
-304 82 0
-304 74 75 76 0
-304 -78 111 0
-304 -79 112 0
-304 -80 113 0
-304 106 0
-305 73 0
-305 107 0
-305 110 0
-306 73 0
-306 52 0
-306 44 45 0
-306 -48 111 0
-306 -49 112 0
-306 -50 113 0
-306 107 0
-307 73 0
-307 63 0
-307 55 56 0
-307 -59 111 0
-307 -60 112 0
-307 -61 113 0
-307 107 0
-308 73 0
-308 82 0
-308 74 75 76 77 0
-308 -78 111 0
-308 -79 112 0
-308 -80 113 0
-308 107 0
-309 73 0
-309 108 0
-309 110 0
-310 73 0
-310 52 0
-310 45 46 0
-310 -48 111 0
-310 -49 112 0
-310 -50 113 0
-310 108 0
-311 73 0
-311 63 0
-311 56 57 0
-311 -59 111 0
-311 -60 112 0
-311 -61 113 0
-311 108 0
-312 73 0
-312 82 0
-312 75 76 77 0
-312 -78 111 0
-312 -79 112 0
-312 -80 113 0
-312 108 0
-313 73 0
-313 109 0
-313 110 0
-314 73 0
-314 52 0
-314 46 47 0
-314 -48 111 0
-314 -49 112 0
-314 -50 113 0
-314 109 0
-315 73 0
-315 63 0
-315 57 58 0
-315 -59 111 0
-315 -60 112 0
-315 -61 113 0
-315 109 0
-316 73 0
-316 82 0
-316 76 77 0
-316 -78 111 0
-316 -79 112 0
-316 -80 113 0
-316 109 0
-317 82 0
-317 115 0
-317 119 0
-318 82 0
-318 52 0
-318 42 43 44 0
-318 -48 120 0
-318 -49 121 0
-318 -50 122 0
-318 115 0
-319 82 0
-319 63 0
-319 53 54 55 0
-319 -59 120 0
-319 -60 121 0
-319 -61 122 0
-319 115 0
-320 82 0
-320 73 0
-320 64 65 66 0
-320 -69 120 0
-320 -70 121 0
-320 -71 122 0
-320 115 0
-321 82 0
-321 116 0
-321 119 0
-322 82 0
-322 52 0
-322 43 44 45 0
-322 -48 120 0
-322 -49 121 0
-322 -50 122 0
-322 116 0
-323 82 0
-323 63 0
-323 54 55 56 0
-323 -59 120 0
-323 -60 121 0
-323 -61 122 0
-323 116 0
-324 82 0
-324 73 0
-324 64 65 66 67 0
-324 -69 120 0
-324 -70 121 0
-324 -71 122 0
-324 116 0
-325 82 0
-325 117 0
-325 119 0
-326 82 0
-326 52 0
-326 44 45 46 0
-326 -48 120 0
-326 -49 121 0
-326 -50 122 0
-326 117 0
-327 82 0
-327 63 0
-327 55 56 57 0
-327 -59 120 0
-327 -60 121 0
-327 -61 122 0
-327 117 0
-328 82 0
-328 73 0
-328 65 66 67 68 0
-328 -69 120 0
-328 -70 121 0
-328 -71 122 0
-328 117 0
-329 82 0
-329 118 0
-329 119 0
-330 82 0
-330 52 0
-330 45 46 47 0
-330 -48 120 0
-330 -49 121 0
-330 -50 122 0
-330 118 0
-331 82 0
-331 63 0
-331 56 57 58 0
-331 -59 120 0
-331 -60 121 0
-331 -61 122 0
-331 118 0
-332 82 0
-332 73 0
-332 66 67 68 0
-332 -69 120 0
-332 -70 121 0
-332 -71 122 0
-332 118 0
249 250 251 252 253 254 255 256 257 258 259 260 261 262 263 264 265 266 267 268 269 270 271 272 273 274 275 276 277 278 279 280 281 282 283 284 285 286 287 288 289 290 291 292 293 294 295 296 297 298 299 300 301 302 303 304 305 306 307 308 309 310 311 312 313 314 315 316 317 318 319 320 321 322 323 324 325 326 327 328 329 330 331 332 0
-249 -250 0
-249 -251 0
-249 -252 0
-249 -253 0
-249 -254 0
-249 -255 0
-249 -256 0
-249 -257 0
-249 -258 0
-249 -259 0
-249 -260 0
-249 -261 0
-249 -262 0
-249 -263 0
-249 -264 0
-249 -265 0
-249 -266 0
-249 -267 0
-249 -268 0
-249 -269 0
-249 -270 0
-249 -271 0
-249 -272 0
-249 -273 0
-249 -274 0
-249 -275 0
-249 -276 0
-249 -277 0
-249 -278 0
-249 -279 0
-249 -280 0
-249 -281 0
-249 -282 0
-249 -283 0
-249 -284 0
-249 -285 0
-249 -286 0
-249 -287 0
-249 -288 0
-249 -289 0
-249 -290 0
-249 -291 0
-249 -292 0
-249 -293 0
-249 -294 0
-249 -295 0
-249 -296 0
-249 -297 0
-249 -298 0
-249 -299 0
-249 -300 0
-249 -301 0
-249 -302 0
-249 -303 0
-249 -304 0
-249 -305 0
-249 -306 0
-249 -307 0
-249 -308 0
-249 -309 0
-249 -310 0
-249 -311 0
-249 -312 0
-249 -313 0
-249 -314 0
-249 -315 0
-249 -316 0
-249 -317 0
-249 -318 0
-249 -319 0
-249 -320 0
-249 -321 0
-249 -322 0
-249 -323 0
-249 -324 0
-249 -325 0
-249 -326 0
-249 -327 0
-249 -328 0
-249 -329 0
-249 -330 0
-249 -331 0
-249 -332 0
-250 -251 0
-250 -252 0
-250 -253 0
-250 -254 0
-250 -255 0
-250 -256 0
-250 -257 0
-250 -258 0
-250 -259 0
-250 -260 0
-250 -261 0
-250 -262 0
-250 -263 0
-250 -264 0
-250 -265 0
-250 -266 0
-250 -267 0
-250 -268 0
-250 -269 0
-250 -270 0
-250 -271 0
-250 -272 0
-250 -273 0
-250 -274 0
-250 -275 0
-250 -276 0
-250 -277 0
-250 -278 0
-250 -279 0
-250 -280 0
-250 -281 0
-250 -282 0
-250 -283 0
-250 -284 0
-250 -285 0
-250 -286 0
-250 -287 0
-250 -288 0
-250 -289 0
-250 -290 0
-250 -291 0
-250 -292 0
-250 -293 0
-250 -294 0
-250 -295 0
-250 -296 0
-250 -297 0
-250 -298 0
-250 -299 0
-250 -300 0
-250 -301 0
-250 -302 0
-250 -303 0
-250 -304 0
-250 -305 0
-250 -306 0
-250 -307 0
-250 -308 0
-250 -309 0
-250 -310 0
-250 -311 0
-250 -312 0
-250 -313 0
-250 -314 0
-250 -315 0
-250 -316 0
-250 -317 0
-250 -318 0
-250 -319 0
-250 -320 0
-250 -321 0
-250 -322 0
-250 -323 0
-250 -324 0
-250 -325 0
-250 -326 0
-250 -327 0
-250 -328 0
-250 -329 0
-250 -330 0
-250 -331 0
-250 -332 0
-251 -252 0
-251 -253 0
-251 -254 0
-251 -255 0
-251 -256 0
-251 -257 0
-251 -258 0
-251 -259 0
-251 -260 0
-251 -261 0
-251 -262 0
-251 -263 0
-251 -264 0
-251 -265 0
-251 -266 0
-251 -267 0
-251 -268 0
-251 -269 0
-251 -270 0
-251 -271 0
-251 -272 0
-251 -273 0
-251 -274 0
-251 -275 0
-251 -276 0
-251 -277 0
-251 -278 0
-251 -279 0
-251 -280 0
-251 -281 0
-251 -282 0
-251 -283 0
-251 -284 0
-251 -285 0
-251 -286 0
-251 -287 0
-251 -288 0
-251 -289 0
-251 -290 0
-251 -291 0
-251 -292 0
-251 -293 0
-251 -294 0
-251 -295 0
-251 -296 0
-251 -297 0
-251 -298 0
-251 -299 0
-251 -300 0
-251 -301 0
-251 -302 0
-251 -303 0
-251 -304 0
-251 -305 0
-251 -306 0
-251 -307 0
-251 -308 0
-251 -309 0
-251 -310 0
-251 -311 0
-251 -312 0
-251 -313 0
-251 -314 0
-251 -315 0
-251 -316 0
-251 -317 0
-251 -318 0
-251 -319 0
-251 -320 0
-251 -321 0
-251 -322 0
-251 -323 0
-251 -324 0
-251 -325 0
-251 -326 0
-251 -327 0
-251 -328 0
-251 -329 0
-251 -330 0
-251 -331 0
-251 -332 0
-252 -253 0
-252 -254 0
-252 -255 0
-252 -256 0
-252 -257 0
-252 -258 0
-252 -259 0
-252 -260 0
-252 -261 0
-252 -262 0
-252 -263 0
-252 -264 0
-252 -265 0
-252 -266 0
-252 -267 0
-252 -268 0
-252 -269 0
-252 -270 0
-252 -271 0
-252 -272 0
-252 -273 0
-252 -274 0
-252 -275 0
-252 -276 0
-252 -277 0
-252 -278 0
-252 -279 0
-252 -280 0
-252 -281 0
-252 -282 0
-252 -283 0
-252 -284 0
-252 -285 0
-252 -286 0
-252 -287 0
-252 -288 0
-252 -289 0
-252 -290 0
-252 -291 0
-252 -292 0
-252 -293 0
-252 -294 0
-252 -295 0
-252 -296 0
-252 -297 0
-252 -298 0
-252 -299 0
-252 -300 0
-252 -301 0
-252 -302 0
-252 -303 0
-252 -304 0
-252 -305 0
-252 -306 0
-252 -307 0
-252 -308 0
-252 -309 0
-252 -310 0
-252 -311 0
-252 -312 0
-252 -313 0
-252 -314 0
-252 -315 0
-252 -316 0
-252 -317 0
-252 -318 0
-252 -319 0
-252 -320 0
-252 -321 0
-252 -322 0
-252 -323 0
-252 -324 0
-252 -325 0
-252 -326 0
-252 -327 0
-252 -328 0
-252 -329 0
-252 -330 0
-252 -331 0
-252 -332 0
-253 -254 0
-253 -255 0
-253 -256 0
-253 -257 0
-253 -258 0
-253 -259 0
-253 -260 0
-253 -261 0
-253 -262 0
-253 -263 0
-253 -264 0
-253 -265 0
-253 -266 0
-253 -267 0
-253 -268 0
-253 -269 0
-253 -270 0
-253 -271 0
-253 -272 0
-253 -273 0
-253 -274 0
-253 -275 0
-253 -276 0
-253 -277 0
-253 -278 0
-253 -279 0
-253 -280 0
-253 -281 0
-253 -282 0
-253 -283 0
-253 -284 0
-253 -285 0
-253 -286 0
-253 -287 0
-253 -288 0
-253 -289 0
-253 -290 0
-253 -291 0
-253 -292 0
-253 -293 0
-253 -294 0
-253 -295 0
-253 -296 0
-253 -297 0
-253 -298 0
-253 -299 0
-253 -300 0
-253 -301 0
-253 -302 0
-253 -303 0
-253 -304 0
-253 -305 0
-253 -306 0
-253 -307 0
-253 -308 0
-253 -309 0
-253 -310 0
-253 -311 0
-253 -312 0
-253 -313 0
-253 -314 0
-253 -315 0
-253 -316 0
-253 -317 0
-253 -318 0
-253 -319 0
-253 -320 0
-253 -321 0
-253 -322 0
-253 -323 0
-253 -324 0
-253 -325 0
-253 -326 0
-253 -327 0
-253 -328 0
-253 -329 0
-253 -330 0
-253 -331 0
-253 -332 0
-254 -255 0
-254 -256 0
-254 -257 0
-254 -258 0
-254 -259 0
-254 -260 0
-254 -261 0
-254 -262 0
-254 -263 0
-254 -264 0
-254 -265 0
-254 -266 0
-254 -267 0
-254 -268 0
-254 -269 0
-254 -270 0
-254 -271 0
-254 -272 0
-254 -273 0
-254 -274 0
-254 -275 0
-254 -276 0
-254 -277 0
-254 -278 0
-254 -279 0
-254 -280 0
-254 -281 0
-254 -282 0
-254 -283 0
-254 -284 0
-254 -285 0
-254 -286 0
-254 -287 0
-254 -288 0
-254 -289 0
-254 -290 0
-254 -291 0
-254 -292 0
-254 -293 0
-254 -294 0
-254 -295 0
-254 -296 0
-254 -297 0
-254 -298 0
-254 -299 0
-254 -300 0
-254 -301 0
-254 -302 0
-254 -303 0
-254 -304 0
-254 -305 0
-254 -306 0
-254 -307 0
-254 -308 0
-254 -309 0
-254 -310 0
-254 -311 0
-254 -312 0
-254 -313 0
-254 -314 0
-254 -315 0
-254 -316 0
-254 -317 0
-254 -318 0
-254 -319 0
-254 -320 0
-254 -321 0
-254 -322 0
-254 -323 0
-254 -324 0
-254 -325 0
-254 -326 0
-254 -327 0
-254 -328 0
-254 -329 0
-254 -330 0
-254 -331 0
-254 -332 0
-255 -256 0
-255 -257 0
-255 -258 0
-255 -259 0
-255 -260 0
-255 -261 0
-255 -262 0
-255 -263 0
-255 -264 0
-255 -265 0
-255 -266 0
-255 -267 0
-255 -268 0
-255 -269 0
-255 -270 0
-255 -271 0
-255 -272 0
-255 -273 0
-255 -274 0
-255 -275 0
-255 -276 0
-255 -277 0
-255 -278 0
-255 -279 0
-255 -280 0
-255 -281 0
-255 -282 0
-255 -283 0
-255 -284 0
-255 -285 0
-255 -286 0
-255 -287 0
-255 -288 0
-255 -289 0
-255 -290 0
-255 -291 0
-255 -292 0
-255 -293 0
-255 -294 0
-255 -295 0
-255 -296 0
-255 -297 0
-255 -298 0
-255 -299 0
-255 -300 0
-255 -301 0
-255 -302 0
-255 -303 0
-255 -304 0
-255 -305 0
-255 -306 0
-255 -307 0
-255 -308 0
-255 -309 0
-255 -310 0
-255 -311 0
-255 -312 0
-255 -313 0
-255 -314 0
-255 -315 0
-255 -316 0
-255 -317 0
-255 -318 0
-255 -319 0
-255 -320 0
-255 -321 0
-255 -322 0
-255 -323 0
-255 -324 0
-255 -325 0
-255 -326 0
-255 -327 0
-255 -328 0
-255 -329 0
-255 -330 0
-255 -331 0
-255 -332 0
-256 -257 0
-256 -258 0
-256 -259 0
-256 -260 0
-256 -261 0
-256 -262 0
-256 -263 0
-256 -264 0
-256 -265 0
-256 -266 0
-256 -267 0
-256 -268 0
-256 -269 0
-256 -270 0
-256 -271 0
-256 -272 0
-256 -273 0
-256 -274 0
-256 -275 0
-256 -276 0
-256 -277 0
-256 -278 0
-256 -279 0
-256 -280 0
-256 -281 0
-256 -282 0
-256 -283 0
-256 -284 0
-256 -285 0
-256 -286 0
-256 -287 0
-256 -288 0
-256 -289 0
-256 -290 0
-256 -291 0
-256 -292 0
-256 -293 0
-256 -294 0
-256 -295 0
-256 -296 0
-256 -297 0
-256 -298 0
-256 -299 0
-256 -300 0
-256 -301 0
-256 -302 0
-256 -303 0
-256 -304 0
-256 -305 0
-256 -306 0
-256 -307 0
-256 -308 0
-256 -309 0
-256 -310 0
-256 -311 0
-256 -312 0
-256 -313 0
-256 -314 0
-256 -315 0
-256 -316 0
-256 -317 0
-256 -318 0
-256 -319 0
-256 -320 0
-256 -321 0
-256 -322 0
-256 -323 0
-256 -324 0
-256 -325 0
-256 -326 0
-256 -327 0
-256 -328 0
-256 -329 0
-256 -330 0
-256 -331 0
-256 -332 0
-257 -258 0
-257 -259 0
-257 -260 0
-257 -261 0
-257 -262 0
-257 -263 0
-257 -264 0
-257 -265 0
-257 -266 0
-257 -267 0
-257 -268 0
-257 -269 0
-257 -270 0
-257 -271 0
-257 -272 0
-257 -273 0
-257 -274 0
-257 -275 0
-257 -276 0
-257 -277 0
-257 -278 0
-257 -279 0
-257 -280 0
-257 -281 0
-257 -282 0
-257 -283 0
-257 -284 0
-257 -285 0
-257 -286 0
-257 -287 0
-257 -288 0
-257 -289 0
-257 -290 0
-257 -291 0
-257 -292 0
-257 -293 0
-257 -294 0
-257 -295 0
-257 -296 0
-257 -297 0
-257 -298 0
-257 -299 0
-257 -300 0
-257 -301 0
-257 -302 0
-257 -303 0
-257 -304 0
-257 -305 0
-257 -306 0
-257 -307 0
-257 -308 0
-257 -309 0
-257 -310 0
-257 -311 0
-257 -312 0
-257 -313 0
-257 -314 0
-257 -315 0
-257 -316 0
-257 -317 0
-257 -318 0
-257 -319 0
-257 -320 0
-257 -321 0
-257 -322 0
-257 -323 0
-257 -324 0
-257 -325 0
-257 -326 0
-257 -327 0
-257 -328 0
-257 -329 0
-257 -330 0
-257 -331 0
-257 -332 0
-258 -259 0
-258 -260 0
-258 -261 0
-258 -262 0
-258 -263 0
-258 -264 0
-258 -265 0
-258 -266 0
-258 -267 0
-258 -268 0
-258 -269 0
-258 -270 0
-258 -271 0
-258 -272 0
-258 -273 0
-258 -274 0
-258 -275 0
-258 -276 0
-258 -277 0
-258 -278 0
-258 -279 0
-258 -280 0
-258 -281 0
-258 -282 0
-258 -283 0
-258 -284 0
-258 -285 0
-258 -286 0
-258 -287 0
-258 -288 0
-258 -289 0
-258 -290 0
-258 -291 0
-258 -292 0
-258 -293 0
-258 -294 0
-258 -295 0
-258 -296 0
-258 -297 0
-258 -298 0
-258 -299 0
-258 -300 0
-258 -301 0
-258 -302 0
-258 -303 0
-258 -304 0
-258 -305 0
-258 -306 0
-258 -307 0
-258 -308 0
-258 -309 0
-258 -310 0
-258 -311 0
-258 -312 0
-258 -313 0
-258 -314 0
-258 -315 0
-258 -316 0
-258 -317 0
-258 -318 0
-258 -319 0
-258 -320 0
-258 -321 0
-258 -322 0
-258 -323 0
-258 -324 0
-258 -325 0
-258 -326 0
-258 -327 0
-258 -328 0
-258 -329 0
-258 -330 0
-258 -331 0
-258 -332 0
-259 -260 0
-259 -261 0
-259 -262 0
-259 -263 0
-259 -264 0
-259 -265 0
-259 -266 0
-259 -267 0
-259 -268 0
-259 -269 0
-259 -270 0
-259 -271 0
-259 -272 0
-259 -273 0
-259 -274 0
-259 -275 0
-259 -276 0
-259 -277 0
-259 -278 0
-259 -279 0
-259 -280 0
-259 -281 0
-259 -282 0
-259 -283 0
-259 -284 0
-259 -285 0
-259 -286 0
-259 -287 0
-259 -288 0
-259 -289 0
-259 -290 0
-259 -291 0
-259 -292 0
-259 -293 0
-259 -294 0
-259 -295 0
-259 -296 0
-259 -297 0
-259 -298 0
-259 -299 0
-259 -300 0
-259 -301 0
-259 -302 0
-259 -303 0
-259 -304 0
-259 -305 0
-259 -306 0
-259 -307 0
-259 -308 0
-259 -309 0
-259 -310 0
-259 -311 0
-259 -312 0
-259 -313 0
-259 -314 0
-259 -315 0
-259 -316 0
-259 -317 0
-259 -318 0
-259 -319 0
-259 -320 0
-259 -321 0
-259 -322 0
-259 -323 0
-259 -324 0
-259 -325 0
-259 -326 0
-259 -327 0
-259 -328 0
-259 -329 0
-259 -330 0
-259 -331 0
-259 -332 0
-260 -261 0
-260 -262 0
-260 -263 0
-260 -264 0
-260 -265 0
-260 -266 0
-260 -267 0
-260 -268 0
-260 -269 0
-260 -270 0
-260 -271 0
-260 -272 0
-260 -273 0
-260 -274 0
-260 -275 0
-260 -276 0
-260 -277 0
-260 -278 0
-260 -279 0
-260 -280 0
-260 -281 0
-260 -282 0
-260 -283 0
-260 -284 0
-260 -285 0
-260 -286 0
-260 -287 0
-260 -288 0
-260 -289 0
-260 -290 0
-260 -291 0
-260 -292 0
-260 -293 0
-260 -294 0
-260 -295 0
-260 -296 0
-260 -297 0
-260 -298 0
-260 -299 0
-260 -300 0
-260 -301 0
-260 -302 0
-260 -303 0
-260 -304 0
-260 -305 0
-260 -306 0
-260 -307 0
-260 -308 0
-260 -309 0
-260 -310 0
-260 -311 0
-260 -312 0
-260 -313 0
-260 -314 0
-260 -315 0
-260 -316 0
-260 -317 0
-260 -318 0
-260 -319 0
-260 -320 0
-260 -321 0
-260 -322 0
-260 -323 0
-260 -324 0
-260 -325 0
-260 -326 0
-260 -327 0
-260 -328 0
-260 -329 0
-260 -330 0
-260 -331 0
-260 -332 0
-261 -262 0
-261 -263 0
-261 -264 0
-261 -265 0
-261 -266 0
-261 -267 0
-261 -268 0
-261 -269 0
-261 -270 0
-261 -271 0
-261 -272 0
-261 -273 0
-261 -274 0
-261 -275 0
-261 -276 0
-261 -277 0
-261 -278 0
-261 -279 0
-261 -280 0
-261 -281 0
-261 -282 0
-261 -283 0
-261 -284 0
-261 -285 0
-261 -286 0
-261 -287 0
-261 -288 0
-261 -289 0
-261 -290 0
-261 -291 0
-261 -292 0
-261 -293 0
-261 -294 0
-261 -295 0
-261 -296 0
-261 -297 0
-261 -298 0
-261 -299 0
-261 -300 0
-261 -301 0
-261 -302 0
-261 -303 0
-261 -304 0
-261 -305 0
-261 -306 0
-261 -307 0
-261 -308 0
-261 -309 0
-261 -310 0
-261 -311 0
-261 -312 0
-261 -313 0
-261 -314 0
-261 -315 0
-261 -316 0
-261 -317 0
-261 -318 0
-261 -319 0
-261 -320 0
-261 -321 0
-261 -322 0
-261 -323 0
-261 -324 0
-261 -325 0
-261 -326 0
-261 -327 0
-261 -328 0
-261 -329 0
-261 -330 0
-261 -331 0
-261 -332 0
-262 -263 0
-262 -264 0
-262 -265 0
-262 -266 0
-262 -267 0
-262 -268 0
-262 -269 0
-262 -270 0
-262 -271 0
-262 -272 0
-262 -273 0
-262 -274 0
-262 -275 0
-262 -276 0
-262 -277 0
-262 -278 0
-262 -279 0
-262 -280 0
-262 -281 0
-262 -282 0
-262 -283 0
-262 -284 0
-262 -285 0
-262 -286 0
-262 -287 0
-262 -288 0
-262 -289 0
-262 -290 0
-262 -291 0
-262 -292 0
-262 -293 0
-262 -294 0
-262 -295 0
-262 -296 0
-262 -297 0
-262 -298 0
-262 -299 0
-262 -300 0
-262 -301 0
-262 -302 0
-262 -303 0
-262 -304 0
-262 -305 0
-262 -306 0
-262 -307 0
-262 -308 0
-262 -309 0
-262 -310 0
-262 -311 0
-262 -312 0
-262 -313 0
-262 -314 0
-262 -315 0
-262 -316 0
-262 -317 0
-262 -318 0
-262 -319 0
-262 -320 0
-262 -321 0
-262 -322 0
-262 -323 0
-262 -324 0
-262 -325 0
-262 -326 0
-262 -327 0
-262 -328 0
-262 -329 0
-262 -330 0
-262 -331 0
-262 -332 0
-263 -264 0
-263 -265 0
-263 -266 0
-263 -267 0
-263 -268 0
-263 -269 0
-263 -270 0
-263 -271 0
-263 -272 0
-263 -273 0
-263 -274 0
-263 -275 0
-263 -276 0
-263 -277 0
-263 -278 0
-263 -279 0
-263 -280 0
-263 -281 0
-263 -282 0
-263 -283 0
-263 -284 0
-263 -285 0
-263 -286 0
-263 -287 0
-263 -288 0
-263 -289 0
-263 -290 0
-263 -291 0
-263 -292 0
-263 -293 0
-263 -294 0
-263 -295 0
-263 -296 0
-263 -297 0
-263 -298 0
-263 -299 0
-263 -300 0
-263 -301 0
-263 -302 0
-263 -303 0
-263 -304 0
-263 -305 0
-263 -306 0
-263 -307 0
-263 -308 0
-263 -309 0
-263 -310 0
-263 -311 0
-263 -312 0
-263 -313 0
-263 -314 0
-263 -315 0
-263 -316 0
-263 -317 0
-263 -318 0
-263 -319 0
-263 -320 0
-263 -321 0
-263 -322 0
-263 -323 0
-263 -324 0
-263 -325 0
-263 -326 0
-263 -327 0
-263 -328 0
-263 -329 0
-263 -330 0
-263 -331 0
-263 -332 0
-264 -265 0
-264 -266 0
-264 -267 0
-264 -268 0
-264 -269 0
-264 -270 0
-264 -271 0
-264 -272 0
-264 -273 0
-264 -274 0
-264 -275 0
-264 -276 0
-264 -277 0
-264 -278 0
-264 -279 0
-264 -280 0
-264 -281 0
-264 -282 0
-264 -283 0
-264 -284 0
-264 -285 0
-264 -286 0
-264 -287 0
-264 -288 0
-264 -289 0
-264 -290 0
-264 -291 0
-264 -292 0
-264 -293 0
-264 -294 0
-264 -295 0
-264 -296 0
-264 -297 0
-264 -298 0
-264 -299 0
-264 -300 0
-264 -301 0
-264 -302 0
-264 -303 0
-264 -304 0
-264 -305 0
-264 -306 0
-264 -307 0
-264 -308 0
-264 -309 0
-264 -310 0
-264 -311 0
-264 -312 0
-264 -313 0
-264 -314 0
-264 -315 0
-264 -316 0
-264 -317 0
-264 -318 0
-264 -319 0
-264 -320 0
-264 -321 0
-264 -322 0
-264 -323 0
-264 -324 0
-264 -325 0
-264 -326 0
-264 -327 0
-264 -328 0
-264 -329 0
-264 -330 0
-264 -331 0
-264 -332 0
-265 -266 0
-265 -267 0
-265 -268 0
-265 -269 0
-265 -270 0
-265 -271 0
-265 -272 0
-265 -273 0
-265 -274 0
-265 -275 0
-265 -276 0
-265 -277 0
-265 -278 0
-265 -279 0
-265 -280 0
-265 -281 0
-265 -282 0
-265 -283 0
-265 -284 0
-265 -285 0
-265 -286 0
-265 -287 0
-265 -288 0
-265 -289 0
-265 -290 0
-265 -291 0
-265 -292 0
-265 -293 0
-265 -294 0
-265 -295 0
-265 -296 0
-265 -297 0
-265 -298 0
-265 -299 0
-265 -300 0
-265 -301 0
-265 -302 0
-265 -303 0
-265 -304 0
-265 -305 0
-265 -306 0
-265 -307 0
-265 -308 0
-265 -309 0
-265 -310 0
-265 -311 0
-265 -312 0
-265 -313 0
-265 -314 0
-265 -315 0
-265 -316 0
-265 -317 0
-265 -318 0
-265 -319 0
-265 -320 0
-265 -321 0
-265 -322 0
-265 -323 0
-265 -324 0
-265 -325 0
-265 -326 0
-265 -327 0
-265 -328 0
-265 -329 0
-265 -330 0
-265 -331 0
-265 -332 0
-266 -267 0
-266 -268 0
-266 -269 0
-266 -270 0
-266 -271 0
-266 -272 0
-266 -273 0
-266 -274 0
-266 -275 0
-266 -276 0
-266 -277 0
-266 -278 0
-266 -279 0
-266 -280 0
-266 -281 0
-266 -282 0
-266 -283 0
-266 -284 0
-266 -285 0
-266 -286 0
-266 -287 0
-266 -288 0
-266 -289 0
-266 -290 0
-266 -291 0
-266 -292 0
-266 -293 0
-266 -294 0
-266 -295 0
-266 -296 0
-266 -297 0
-266 -298 0
-266 -299 0
-266 -300 0
-266 -301 0
-266 -302 0
-266 -303 0
-266 -304 0
-266 -305 0
-266 -306 0
-266 -307 0
-266 -308 0
-266 -309 0
-266 -310 0
-266 -311 0
-266 -312 0
-266 -313 0
-266 -314 0
-266 -315 0
-266 -316 0
-266 -317 0
-266 -318 0
-266 -319 0
-266 -320 0
-266 -321 0
-266 -322 0
-266 -323 0
-266 -324 0
-266 -325 0
-266 -326 0
-266 -327 0
-266 -328 0
-266 -329 0
-266 -330 0
-266 -331 0
-266 -332 0
-267 -268 0
-267 -269 0
-267 -270 0
-267 -271 0
-267 -272 0
-267 -273 0
-267 -274 0
-267 -275 0
-267 -276 0
-267 -277 0
-267 -278 0
-267 -279 0
-267 -280 0
-267 -281 0
-267 -282 0
-267 -283 0
-267 -284 0
-267 -285 0
-267 -286 0
-267 -287 0
-267 -288 0
-267 -289 0
-267 -290 0
-267 -291 0
-267 -292 0
-267 -293 0
-267 -294 0
-267 -295 0
-267 -296 0
-267 -297 0
-267 -298 0
-267 -299 0
-267 -300 0
-267 -301 0
-267 -302 0
-267 -303 0
-267 -304 0
-267 -305 0
-267 -306 0
-267 -307 0
-267 -308 0
-267 -309 0
-267 -310 0
-267 -311 0
-267 -312 0
-267 -313 0
-267 -314 0
-267 -315 0
-267 -316 0
-267 -317 0
-267 -318 0
-267 -319 0
-267 -320 0
-267 -321 0
-267 -322 0
-267 -323 0
-267 -324 0
-267 -325 0
-267 -326 0
-267 -327 0
-267 -328 0
-267 -329 0
-267 -330 0
-267 -331 0
-267 -332 0
-268 -269 0
-268 -270 0
-268 -271 0
-268 -272 0
-268 -273 0
-268 -274 0
-268 -275 0
-268 -276 0
-268 -277 0
-268 -278 0
-268 -279 0
-268 -280 0
-268 -281 0
-268 -282 0
-268 -283 0
-268 -284 0
-268 -285 0
-268 -286 0
-268 -287 0
-268 -288 0
-268 -289 0
-268 -290 0
-268 -291 0
-268 -292 0
-268 -293 0
-268 -294 0
-268 -295 0
-268 -296 0
-268 -297 0
-268 -298 0
-268 -299 0
-268 -300 0
-268 -301 0
-268 -302 0
-268 -303 0
-268 -304 0
-268 -305 0
-268 -306 0
-268 -307 0
-268 -308 0
-268 -309 0
-268 -310 0
-268 -311 0
-268 -312 0
-268 -313 0
-268 -314 0
-268 -315 0
-268 -316 0
-268 -317 0
-268 -318 0
-268 -319 0
-268 -320 0
-268 -321 0
-268 -322 0
-268 -323 0
-268 -324 0
-268 -325 0
-268 -326 0
-268 -327 0
-268 -328 0
-268 -329 0
-268 -330 0
-268 -331 0
-268 -332 0
-269 -270 0
-269 -271 0
-269 -272 0
-269 -273 0
-269 -274 0
-269 -275 0
-269 -276 0
-269 -277 0
-269 -278 0
-269 -279 0
-269 -280 0
-269 -281 0
-269 -282 0
-269 -283 0
-269 -284 0
-269 -285 0
-269 -286 0
-269 -287 0
-269 -288 0
-269 -289 0
-269 -290 0
-269 -291 0
-269 -292 0
-269 -293 0
-269 -294 0
-269 -295 0
-269 -296 0
-269 -297 0
-269 -298 0
-269 -299 0
-269 -300 0
-269 -301 0
-269 -302 0
-269 -303 0
-269 -304 0
-269 -305 0
-269 -306 0
-269 -307 0
-269 -308 0
-269 -309 0
-269 -310 0
-269 -311 0
-269 -312 0
-269 -313 0
-269 -314 0
-269 -315 0
-269 -316 0
-269 -317 0
-269 -318 0
-269 -319 0
-269 -320 0
-269 -321 0
-269 -322 0
-269 -323 0
-269 -324 0
-269 -325 0
-269 -326 0
-269 -327 0
-269 -328 0
-269 -329 0
-269 -330 0
-269 -331 0
-269 -332 0
-270 -271 0
-270 -272 0
-270 -273 0
-270 -274 0
-270 -275 0
-270 -276 0
-270 -277 0
-270 -278 0
-270 -279 0
-270 -280 0
-270 -281 0
-270 -282 0
-270 -283 0
-270 -284 0
-270 -285 0
-270 -286 0
-270 -287 0
-270 -288 0
-270 -289 0
-270 -290 0
-270 -291 0
-270 -292 0
-270 -293 0
-270 -294 0
-270 -295 0
-270 -296 0
-270 -297 0
-270 -298 0
-270 -299 0
-270 -300 0
-270 -301 0
-270 -302 0
-270 -303 0
-270 -304 0
-270 -305 0
-270 -306 0
-270 -307 0
-270 -308 0
-270 -309 0
-270 -310 0
-270 -311 0
-270 -312 0
-270 -313 0
-270 -314 0
-270 -315 0
-270 -316 0
-270 -317 0
-270 -318 0
-270 -319 0
-270 -320 0
-270 -321 0
-270 -322 0
-270 -323 0
-270 -324 0
-270 -325 0
-270 -326 0
-270 -327 0
-270 -328 0
-270 -329 0
-270 -330 0
-270 -331 0
-270 -332 0
-271 -272 0
-271 -273 0
-271 -274 0
-271 -275 0
-271 -276 0
-271 -277 0
-271 -278 0
-271 -279 0
-271 -280 0
-271 -281 0
-271 -282 0
-271 -283 0
-271 -284 0
-271 -285 0
-271 -286 0
-271 -287 0
-271 -288 0
-271 -289 0
-271 -290 0
-271 -291 0
-271 -292 0
-271 -293 0
-271 -294 0
-271 -295 0
-271 -296 0
-271 -297 0
-271 -298 0
-271 -299 0
-271 -300 0
-271 -301 0
-271 -302 0
-271 -303 0
-271 -304 0
-271 -305 0
-271 -306 0
-271 -307 0
-271 -308 0
-271 -309 0
-271 -310 0
-271 -311 0
-271 -312 0
-271 -313 0
-271 -314 0
-271 -315 0
-271 -316 0
-271 -317 0
-271 -318 0
-271 -319 0
-271 -320 0
-271 -321 0
-271 -322 0
-271 -323 0
-271 -324 0
-271 -325 0
-271 -326 0
-271 -327 0
-271 -328 0
-271 -329 0
-271 -330 0
-271 -331 0
-271 -332 0
-272 -273 0
-272 -274 0
-272 -275 0
-272 -276 0
-272 -277 0
-272 -278 0
-272 -279 0
-272 -280 0
-272 -281 0
-272 -282 0
-272 -283 0
-272 -284 0
-272 -285 0
-272 -286 0
-272 -287 0
-272 -288 0
-272 -289 0
-272 -290 0
-272 -291 0
-272 -292 0
-272 -293 0
-272 -294 0
-272 -295 0
-272 -296 0
-272 -297 0
-272 -298 0
-272 -299 0
-272 -300 0
-272 -301 0
-272 -302 0
-272 -303 0
-272 -304 0
-272 -305 0
-272 -306 0
-272 -307 0
-272 -308 0
-272 -309 0
-272 -310 0
-272 -311 0
-272 -312 0
-272 -313 0
-272 -314 0
-272 -315 0
-272 -316 0
-272 -317 0
-272 -318 0
-272 -319 0
-272 -320 0
-272 -321 0
-272 -322 0
-272 -323 0
-272 -324 0
-272 -325 0
-272 -326 0
-272 -327 0
-272 -328 0
-272 -329 0
-272 -330 0
-272 -331 0
-272 -332 0
-273 -274 0
-273 -275 0
-273 -276 0
-273 -277 0
-273 -278 0
-273 -279 0
-273 -280 0
-273 -281 0
-273 -282 0
-273 -283 0
-273 -284 0
-273 -285 0
-273 -286 0
-273 -287 0
-273 -288 0
-273 -289 0
-273 -290 0
-273 -291 0
-273 -292 0
-273 -293 0
-273 -294 0
-273 -295 0
-273 -296 0
-273 -297 0
-273 -298 0
-273 -299 0
-273 -300 0
-273 -301 0
-273 -302 0
-273 -303 0
-273 -304 0
-273 -305 0
-273 -306 0
-273 -307 0
-273 -308 0
-273 -309 0
-273 -310 0
-273 -311 0
-273 -312 0
-273 -313 0
-273 -314 0
-273 -315 0
-273 -316 0
-273 -317 0
-273 -318 0
-273 -319 0
-273 -320 0
-273 -321 0
-273 -322 0
-273 -323 0
-273 -324 0
-273 -325 0
-273 -326 0
-273 -327 0
-273 -328 0
-273 -329 0
-273 -330 0
-273 -331 0
-273 -332 0
-274 -275 0
-274 -276 0
-274 -277 0
-274 -278 0
-274 -279 0
-274 -280 0
-274 -281 0
-274 -282 0
-274 -283 0
-274 -284 0
-274 -285 0
-274 -286 0
-274 -287 0
-274 -288 0
-274 -289 0
-274 -290 0
-274 -291 0
-274 -292 0
-274 -293 0
-274 -294 0
-274 -295 0
-274 -296 0
-274 -297 0
-274 -298 0
-274 -299 0
-274 -300 0
-274 -301 0
-274 -302 0
-274 -303 0
-274 -304 0
-274 -305 0
-274 -306 0
-274 -307 0
-274 -308 0
-274 -309 0
-274 -310 0
-274 -311 0
-274 -312 0
-274 -313 0
-274 -314 0
-274 -315 0
-274 -316 0
-274 -317 0
-274 -318 0
-274 -319 0
-274 -320 0
-274 -321 0
-274 -322 0
-274 -323 0
-274 -324 0
-274 -325 0
-274 -326 0
-274 -327 0
-274 -328 0
-274 -329 0
-274 -330 0
-274 -331 0
-274 -332 0
-275 -276 0
-275 -277 0
-275 -278 0
-275 -279 0
-275 -280 0
-275 -281 0
-275 -282 0
-275 -283 0
-275 -284 0
-275 -285 0
-275 -286 0
-275 -287 0
-275 -288 0
-275 -289 0
-275 -290 0
-275 -291 0
-275 -292 0
-275 -293 0
-275 -294 0
-275 -295 0
-275 -296 0
-275 -297 0
-275 -298 0
-275 -299 0
-275 -300 0
-275 -301 0
-275 -302 0
-275 -303 0
-275 -304 0
-275 -305 0
-275 -306 0
-275 -307 0
-275 -308 0
-275 -309 0
-275 -310 0
-275 -311 0
-275 -312 0
-275 -313 0
-275 -314 0
-275 -315 0
-275 -316 0
-275 -317 0
-275 -318 0
-275 -319 0
-275 -320 0
-275 -321 0
-275 -322 0
-275 -323 0
-275 -324 0
-275 -325 0
-275 -326 0
-275 -327 0
-275 -328 0
-275 -329 0
-275 -330 0
-275 -331 0
-275 -332 0
-276 -277 0
-276 -278 0
-276 -279 0
-276 -280 0
-276 -281 0
-276 -282 0
-276 -283 0
-276 -284 0
-276 -285 0
-276 -286 0
-276 -287 0
-276 -288 0
-276 -289 0
-276 -290 0
-276 -291 0
-276 -292 0
-276 -293 0
-276 -294 0
-276 -295 0
-276 -296 0
-276 -297 0
-276 -298 0
-276 -299 0
-276 -300 0
-276 -301 0
-276 -302 0
-276 -303 0
-276 -304 0
-276 -305 0
-276 -306 0
-276 -307 0
-276 -308 0
-276 -309 0
-276 -310 0
-276 -311 0
-276 -312 0
-276 -313 0
-276 -314 0
-276 -315 0
-276 -316 0
-276 -317 0
-276 -318 0
-276 -319 0
-276 -320 0
-276 -321 0
-276 -322 0
-276 -323 0
-276 -324 0
-276 -325 0
-276 -326 0
-276 -327 0
-276 -328 0
-276 -329 0
-276 -330 0
-276 -331 0
-276 -332 0
-277 -278 0
-277 -279 0
-277 -280 0
-277 -281 0
-277 -282 0
-277 -283 0
-277 -284 0
-277 -285 0
-277 -286 0
-277 -287 0
-277 -288 0
-277 -289 0
-277 -290 0
-277 -291 0
-277 -292 0
-277 -293 0
-277 -294 0
-277 -295 0
-277 -296 0
-277 -297 0
-277 -298 0
-277 -299 0
-277 -300 0
-277 -301 0
-277 -302 0
-277 -303 0
-277 -304 0
-277 -305 0
-277 -306 0
-277 -307 0
-277 -308 0
-277 -309 0
-277 -310 0
-277 -311 0
-277 -312 0
-277 -313 0
-277 -314 0
-277 -315 0
-277 -316 0
-277 -317 0
-277 -318 0
-277 -319 0
-277 -320 0
-277 -321 0
-277 -322 0
-277 -323 0
-277 -324 0
-277 -325 0
-277 -326 0
-277 -327 0
-277 -328 0
-277 -329 0
-277 -330 0
-277 -331 0
-277 -332 0
-278 -279 0
-278 -280 0
-278 -281 0
-278 -282 0
-278 -283 0
-278 -284 0
-278 -285 0
-278 -286 0
-278 -287 0
-278 -288 0
-278 -289 0
-278 -290 0
-278 -291 0
-278 -292 0
-278 -293 0
-278 -294 0
-278 -295 0
-278 -296 0
-278 -297 0
-278 -298 0
-278 -299 0
-278 -300 0
-278 -301 0
-278 -302 0
-278 -303 0
-278 -304 0
-278 -305 0
-278 -306 0
-278 -307 0
-278 -308 0
-278 -309 0
-278 -310 0
-278 -311 0
-278 -312 0
-278 -313 0
-278 -314 0
-278 -315 0
-278 -316 0
-278 -317 0
-278 -318 0
-278 -319 0
-278 -320 0
-278 -321 0
-278 -322 0
-278 -323 0
-278 -324 0
-278 -325 0
-278 -326 0
-278 -327 0
-278 -328 0
-278 -329 0
-278 -330 0
-278 -331 0
-278 -332 0
-279 -280 0
-279 -281 0
-279 -282 0
-279 -283 0
-279 -284 0
-279 -285 0
-279 -286 0
-279 -287 0
-279 -288 0
-279 -289 0
-279 -290 0
-279 -291 0
-279 -292 0
-279 -293 0
-279 -294 0
-279 -295 0
-279 -296 0
-279 -297 0
-279 -298 0
-279 -299 0
-279 -300 0
-279 -301 0
-279 -302 0
-279 -303 0
-279 -304 0
-279 -305 0
-279 -306 0
-279 -307 0
-279 -308 0
-279 -309 0
-279 -310 0
-279 -311 0
-279 -312 0
-279 -313 0
-279 -314 0
-279 -315 0
-279 -316 0
-279 -317 0
-279 -318 0
-279 -319 0
-279 -320 0
-279 -321 0
-279 -322 0
-279 -323 0
-279 -324 0
-279 -325 0
-279 -326 0
-279 -327 0
-279 -328 0
-279 -329 0
-279 -330 0
-279 -331 0
-279 -332 0
-280 -281 0
-280 -282 0
-280 -283 0
-280 -284 0
-280 -285 0
-280 -286 0
-280 -287 0
-280 -288 0
-280 -289 0
-280 -290 0
-280 -291 0
-280 -292 0
-280 -293 0
-280 -294 0
-280 -295 0
-280 -296 0
-280 -297 0
-280 -298 0
-280 -299 0
-280 -300 0
-280 -301 0
-280 -302 0
-280 -303 0
-280 -304 0
-280 -305 0
-280 -306 0
-280 -307 0
-280 -308 0
-280 -309 0
-280 -310 0
-280 -311 0
-280 -312 0
-280 -313 0
-280 -314 0
-280 -315 0
-280 -316 0
-280 -317 0
-280 -318 0
-280 -319 0
-280 -320 0
-280 -321 0
-280 -322 0
-280 -323 0
-280 -324 0
-280 -325 0
-280 -326 0
-280 -327 0
-280 -328 0
-280 -329 0
-280 -330 0
-280 -331 0
-280 -332 0
-281 -282 0
-281 -283 0
-281 -284 0
-281 -285 0
-281 -286 0
-281 -287 0
-281 -288 0
-281 -289 0
-281 -290 0
-281 -291 0
-281 -292 0
-281 -293 0
-281 -294 0
-281 -295 0
-281 -296 0
-281 -297 0
-281 -298 0
-281 -299 0
-281 -300 0
-281 -301 0
-281 -302 0
-281 -303 0
-281 -304 0
-281 -305 0
-281 -306 0
-281 -307 0
-281 -308 0
-281 -309 0
-281 -310 0
-281 -311 0
-281 -312 0
-281 -313 0
-281 -314 0
-281 -315 0
-281 -316 0
-281 -317 0
-281 -318 0
-281 -319 0
-281 -320 0
-281 -321 0
-281 -322 0
-281 -323 0
-281 -324 0
-281 -325 0
-281 -326 0
-281 -327 0
-281 -328 0
-281 -329 0
-281 -330 0
-281 -331 0
-281 -332 0
-282 -283 0
-282 -284 0
-282 -285 0
-282 -286 0
-282 -287 0
-282 -288 0
-282 -289 0
-282 -290 0
-282 -291 0
-282 -292 0
-282 -293 0
-282 -294 0
-282 -295 0
-282 -296 0
-282 -297 0
-282 -298 0
-282 -299 0
-282 -300 0
-282 -301 0
-282 -302 0
-282 -303 0
-282 -304 0
-282 -305 0
-282 -306 0
-282 -307 0
-282 -308 0
-282 -309 0
-282 -310 0
-282 -311 0
-282 -312 0
-282 -313 0
-282 -314 0
-282 -315 0
-282 -316 0
-282 -317 0
-282 -318 0
-282 -319 0
-282 -320 0
-282 -321 0
-282 -322 0
-282 -323 0
-282 -324 0
-282 -325 0
-282 -326 0
-282 -327 0
-282 -328 0
-282 -329 0
-282 -330 0
-282 -331 0
-282 -332 0
-283 -284 0
-283 -285 0
-283 -286 0
-283 -287 0
-283 -288 0
-283 -289 0
-283 -290 0
-283 -291 0
-283 -292 0
-283 -293 0
-283 -294 0
-283 -295 0
-283 -296 0
-283 -297 0
-283 -298 0
-283 -299 0
-283 -300 0
-283 -301 0
-283 -302 0
-283 -303 0
-283 -304 0
-283 -305 0
-283 -306 0
-283 -307 0
-283 -308 0
-283 -309 0
-283 -310 0
-283 -311 0
-283 -312 0
-283 -313 0
-283 -314 0
-283 -315 0
-283 -316 0
-283 -317 0
-283 -318 0
-283 -319 0
-283 -320 0
-283 -321 0
-283 -322 0
-283 -323 0
-283 -324 0
-283 -325 0
-283 -326 0
-283 -327 0
-283 -328 0
-283 -329 0
-283 -330 0
-283 -331 0
-283 -332 0
-284 -285 0
-284 -286 0
-284 -287 0
-284 -288 0
-284 -289 0
-284 -290 0
-284 -291 0
-284 -292 0
-284 -293 0
-284 -294 0
-284 -295 0
-284 -296 0
-284 -297 0
-284 -298 0
-284 -299 0
-284 -300 0
-284 -301 0
-284 -302 0
-284 -303 0
-284 -304 0
-284 -305 0
-284 -306 0
-284 -307 0
-284 -308 0
-284 -309 0
-284 -310 0
-284 -311 0
-284 -312 0
-284 -313 0
-284 -314 0
-284 -315 0
-284 -316 0
-284 -317 0
-284 -318 0
-284 -319 0
-284 -320 0
-284 -321 0
-284 -322 0
-284 -323 0
-284 -324 0
-284 -325 0
-284 -326 0
-284 -327 0
-284 -328 0
-284 -329 0
-284 -330 0
-284 -331 0
-284 -332 0
-285 -286 0
-285 -287 0
-285 -288 0
-285 -289 0
-285 -290 0
-285 -291 0
-285 -292 0
-285 -293 0
-285 -294 0
-285 -295 0
-285 -296 0
-285 -297 0
-285 -298 0
-285 -299 0
-285 -300 0
-285 -301 0
-285 -302 0
-285 -303 0
-285 -304 0
-285 -305 0
-285 -306 0
-285 -307 0
-285 -308 0
-285 -309 0
-285 -310 0
-285 -311 0
-285 -312 0
-285 -313 0
-285 -314 0
-285 -315 0
-285 -316 0
-285 -317 0
-285 -318 0
-285 -319 0
-285 -320 0
-285 -321 0
-285 -322 0
-285 -323 0
-285 -324 0
-285 -325 0
-285 -326 0
-285 -327 0
-285 -328 0
-285 -329 0
-285 -330 0
-285 -331 0
-285 -332 0
-286 -287 0
-286 -288 0
-286 -289 0
-286 -290 0
-286 -291 0
-286 -292 0
-286 -293 0
-286 -294 0
-286 -295 0
-286 -296 0
-286 -297 0
-286 -298 0
-286 -299 0
-286 -300 0
-286 -301 0
-286 -302 0
-286 -303 0
-286 -304 0
-286 -305 0
-286 -306 0
-286 -307 0
-286 -308 0
-286 -309 0
-286 -310 0
-286 -311 0
-286 -312 0
-286 -313 0
-286 -314 0
-286 -315 0
-286 -316 0
-286 -317 0
-286 -318 0
-286 -319 0
-286 -320 0
-286 -321 0
-286 -322 0
-286 -323 0
-286 -324 0
-286 -325 0
-286 -326 0
-286 -327 0
-286 -328 0
-286 -329 0
-286 -330 0
-286 -331 0
-286 -332 0
-287 -288 0
-287 -289 0
-287 -290 0
-287 -291 0
-287 -292 0
-287 -293 0
-287 -294 0
-287 -295 0
-287 -296 0
-287 -297 0
-287 -298 0
-287 -299 0
-287 -300 0
-287 -301 0
-287 -302 0
-287 -303 0
-287 -304 0
-287 -305 0
-287 -306 0
-287 -307 0
-287 -308 0
-287 -309 0
-287 -310 0
-287 -311 0
-287 -312 0
-287 -313 0
-287 -314 0
-287 -315 0
-287 -316 0
-287 -317 0
-287 -318 0
-287 -319 0
-287 -320 0
-287 -321 0
-287 -322 0
-287 -323 0
-287 -324 0
-287 -325 0
-287 -326 0
-287 -327 0
-287 -328 0
-287 -329 0
-287 -330 0
-287 -331 0
-287 -332 0
-288 -289 0
-288 -290 0
-288 -291 0
-288 -292 0
-288 -293 0
-288 -294 0
-288 -295 0
-288 -296 0
-288 -297 0
-288 -298 0
-288 -299 0
-288 -300 0
-288 -301 0
-288 -302 0
-288 -303 0
-288 -304 0
-288 -305 0
-288 -306 0
-288 -307 0
-288 -308 0
-288 -309 0
-288 -310 0
-288 -311 0
-288 -312 0
-288 -313 0
-288 -314 0
-288 -315 0
-288 -316 0
-288 -317 0
-288 -318 0
-288 -319 0
-288 -320 0
-288 -321 0
-288 -322 0
-288 -323 0
-288 -324 0
-288 -325 0
-288 -326 0
-288 -327 0
-288 -328 0
-288 -329 0
-288 -330 0
-288 -331 0
-288 -332 0
-289 -290 0
-289 -291 0
-289 -292 0
-289 -293 0
-289 -294 0
-289 -295 0
-289 -296 0
-289 -297 0
-289 -298 0
-289 -299 0
-289 -300 0
-289 -301 0
-289 -302 0
-289 -303 0
-289 -304 0
-289 -305 0
-289 -306 0
-289 -307 0
-289 -308 0
-289 -309 0
-289 -310 0
-289 -311 0
-289 -312 0
-289 -313 0
-289 -314 0
-289 -315 0
-289 -316 0
-289 -317 0
-289 -318 0
-289 -319 0
-289 -320 0
-289 -321 0
-289 -322 0
-289 -323 0
-289 -324 0
-289 -325 0
-289 -326 0
-289 -327 0
-289 -328 0
-289 -329 0
-289 -330 0
-289 -331 0
-289 -332 0
-290 -291 0
-290 -292 0
-290 -293 0
-290 -294 0
-290 -295 0
-290 -296 0
-290 -297 0
-290 -298 0
-290 -299 0
-290 -300 0
-290 -301 0
-290 -302 0
-290 -303 0
-290 -304 0
-290 -305 0
-290 -306 0
-290 -307 0
-290 -308 0
-290 -309 0
-290 -310 0
-290 -311 0
-290 -312 0
-290 -313 0
-290 -314 0
-290 -315 0
-290 -316 0
-290 -317 0
-290 -318 0
-290 -319 0
-290 -320 0
-290 -321 0
-290 -322 0
-290 -323 0
-290 -324 0
-290 -325 0
-290 -326 0
-290 -327 0
-290 -328 0
-290 -329 0
-290 -330 0
-290 -331 0
-290 -332 0
-291 -292 0
-291 -293 0
-291 -294 0
-291 -295 0
-291 -296 0
-291 -297 0
-291 -298 0
-291 -299 0
-291 -300 0
-291 -301 0
-291 -302 0
-291 -303 0
-291 -304 0
-291 -305 0
-291 -306 0
-291 -307 0
-291 -308 0
-291 -309 0
-291 -310 0
-291 -311 0
-291 -312 0
-291 -313 0
-291 -314 0
-291 -315 0
-291 -316 0
-291 -317 0
-291 -318 0
-291 -319 0
-291 -320 0
-291 -321 0
-291 -322 0
-291 -323 0
-291 -324 0
-291 -325 0
-291 -326 0
-291 -327 0
-291 -328 0
-291 -329 0
-291 -330 0
-291 -331 0
-291 -332 0
-292 -293 0
-292 -294 0
-292 -295 0
-292 -296 0
-292 -297 0
-292 -298 0
-292 -299 0
-292 -300 0
-292 -301 0
-292 -302 0
-292 -303 0
-292 -304 0
-292 -305 0
-292 -306 0
-292 -307 0
-292 -308 0
-292 -309 0
-292 -310 0
-292 -311 0
-292 -312 0
-292 -313 0
-292 -314 0
-292 -315 0
-292 -316 0
-292 -317 0
-292 -318 0
-292 -319 0
-292 -320 0
-292 -321 0
-292 -322 0
-292 -323 0
-292 -324 0
-292 -325 0
-292 -326 0
-292 -327 0
-292 -328 0
-292 -329 0
-292 -330 0
-292 -331 0
-292 -332 0
-293 -294 0
-293 -295 0
-293 -296 0
-293 -297 0
-293 -298 0
-293 -299 0
-293 -300 0
-293 -301 0
-293 -302 0
-293 -303 0
-293 -304 0
-293 -305 0
-293 -306 0
-293 -307 0
-293 -308 0
-293 -309 0
-293 -310 0
-293 -311 0
-293 -312 0
-293 -313 0
-293 -314 0
-293 -315 0
-293 -316 0
-293 -317 0
-293 -318 0
-293 -319 0
-293 -320 0
-293 -321 0
-293 -322 0
-293 -323 0
-293 -324 0
-293 -325 0
-293 -326 0
-293 -327 0
-293 -328 0
-293 -329 0
-293 -330 0
-293 -331 0
-293 -332 0
-294 -295 0
-294 -296 0
-294 -297 0
-294 -298 0
-294 -299 0
-294 -300 0
-294 -301 0
-294 -302 0
-294 -303 0
-294 -304 0
-294 -305 0
-294 -306 0
-294 -307 0
-294 -308 0
-294 -309 0
-294 -310 0
-294 -311 0
-294 -312 0
-294 -313 0
-294 -314 0
-294 -315 0
-294 -316 0
-294 -317 0
-294 -318 0
-294 -319 0
-294 -320 0
-294 -321 0
-294 -322 0
-294 -323 0
-294 -324 0
-294 -325 0
-294 -326 0
-294 -327 0
-294 -328 0
-294 -329 0
-294 -330 0
-294 -331 0
-294 -332 0
-295 -296 0
-295 -297 0
-295 -298 0
-295 -299 0
-295 -300 0
-295 -301 0
-295 -302 0
-295 -303 0
-295 -304 0
-295 -305 0
-295 -306 0
-295 -307 0
-295 -308 0
-295 -309 0
-295 -310 0
-295 -311 0
-295 -312 0
-295 -313 0
-295 -314 0
-295 -315 0
-295 -316 0
-295 -317 0
-295 -318 0
-295 -319 0
-295 -320 0
-295 -321 0
-295 -322 0
-295 -323 0
-295 -324 0
-295 -325 0
-295 -326 0
-295 -327 0
-295 -328 0
-295 -329 0
-295 -330 0
-295 -331 0
-295 -332 0
-296 -297 0
-296 -298 0
-296 -299 0
-296 -300 0
-296 -301 0
-296 -302 0
-296 -303 0
-296 -304 0
-296 -305 0
-296 -306 0
-296 -307 0
-296 -308 0
-296 -309 0
-296 -310 0
-296 -311 0
-296 -312 0
-296 -313 0
-296 -314 0
-296 -315 0
-296 -316 0
-296 -317 0
-296 -318 0
-296 -319 0
-296 -320 0
-296 -321 0
-296 -322 0
-296 -323 0
-296 -324 0
-296 -325 0
-296 -326 0
-296 -327 0
-296 -328 0
-296 -329 0
-296 -330 0
-296 -331 0
-296 -332 0
-297 -298 0
-297 -299 0
-297 -300 0
-297 -301 0
-297 -302 0
-297 -303 0
-297 -304 0
-297 -305 0
-297 -306 0
-297 -307 0
-297 -308 0
-297 -309 0
-297 -310 0
-297 -311 0
-297 -312 0
-297 -313 0
-297 -314 0
-297 -315 0
-297 -316 0
-297 -317 0
-297 -318 0
-297 -319 0
-297 -320 0
-297 -321 0
-297 -322 0
-297 -323 0
-297 -324 0
-297 -325 0
-297 -326 0
-297 -327 0
-297 -328 0
-297 -329 0
-297 -330 0
-297 -331 0
-297 -332 0
-298 -299 0
-298 -300 0
-298 -301 0
-298 -302 0
-298 -303 0
-298 -304 0
-298 -305 0
-298 -306 0
-298 -307 0
-298 -308 0
-298 -309 0
-298 -310 0
-298 -311 0
-298 -312 0
-298 -313 0
-298 -314 0
-298 -315 0
-298 -316 0
-298 -317 0
-298 -318 0
-298 -319 0
-298 -320 0
-298 -321 0
-298 -322 0
-298 -323 0
-298 -324 0
-298 -325 0
-298 -326 0
-298 -327 0
-298 -328 0
-298 -329 0
-298 -330 0
-298 -331 0
-298 -332 0
-299 -300 0
-299 -301 0
-299 -302 0
-299 -303 0
-299 -304 0
-299 -305 0
-299 -306 0
-299 -307 0
-299 -308 0
-299 -309 0
-299 -310 0
-299 -311 0
-299 -312 0
-299 -313 0
-299 -314 0
-299 -315 0
-299 -316 0
-299 -317 0
-299 -318 0
-299 -319 0
-299 -320 0
-299 -321 0
-299 -322 0
-299 -323 0
-299 -324 0
-299 -325 0
-299 -326 0
-299 -327 0
-299 -328 0
-299 -329 0
-299 -330 0
-299 -331 0
-299 -332 0
-300 -301 0
-300 -302 0
-300 -303 0
-300 -304 0
-300 -305 0
-300 -306 0
-300 -307 0
-300 -308 0
-300 -309 0
-300 -310 0
-300 -311 0
-300 -312 0
-300 -313 0
-300 -314 0
-300 -315 0
-300 -316 0
-300 -317 0
-300 -318 0
-300 -319 0
-300 -320 0
-300 -321 0
-300 -322 0
-300 -323 0
-300 -324 0
-300 -325 0
-300 -326 0
-300 -327 0
-300 -328 0
-300 -329 0
-300 -330 0
-300 -331 0
-300 -332 0
-301 -302 0
-301 -303 0
-301 -304 0
-301 -305 0
-301 -306 0
-301 -307 0
-301 -308 0
-301 -309 0
-301 -310 0
-301 -311 0
-301 -312 0
-301 -313 0
-301 -314 0
-301 -315 0
-301 -316 0
-301 -317 0
-301 -318 0
-301 -319 0
-301 -320 0
-301 -321 0
-301 -322 0
-301 -323 0
-301 -324 0
-301 -325 0
-301 -326 0
-301 -327 0
-301 -328 0
-301 -329 0
-301 -330 0
-301 -331 0
-301 -332 0
-302 -303 0
-302 -304 0
-302 -305 0
-302 -306 0
-302 -307 0
-302 -308 0
-302 -309 0
-302 -310 0
-302 -311 0
-302 -312 0
-302 -313 0
-302 -314 0
-302 -315 0
-302 -316 0
-302 -317 0
-302 -318 0
-302 -319 0
-302 -320 0
-302 -321 0
-302 -322 0
-302 -323 0
-302 -324 0
-302 -325 0
-302 -326 0
-302 -327 0
-302 -328 0
-302 -329 0
-302 -330 0
-302 -331 0
-302 -332 0
-303 -304 0
-303 -305 0
-303 -306 0
-303 -307 0
-303 -308 0
-303 -309 0
-303 -310 0
-303 -311 0
-303 -312 0
-303 -313 0
-303 -314 0
-303 -315 0
-303 -316 0
-303 -317 0
-303 -318 0
-303 -319 0
-303 -320 0
-303 -321 0
-303 -322 0
-303 -323 0
-303 -324 0
-303 -325 0
-303 -326 0
-303 -327 0
-303 -328 0
-303 -329 0
-303 -330 0
-303 -331 0
-303 -332 0
-304 -305 0
-304 -306 0
-304 -307 0
-304 -308 0
-304 -309 0
-304 -310 0
-304 -311 0
-304 -312 0
-304 -313 0
-304 -314 0
-304 -315 0
-304 -316 0
-304 -317 0
-304 -318 0
-304 -319 0
-304 -320 0
-304 -321 0
-304 -322 0
-304 -323 0
-304 -324 0
-304 -325 0
-304 -326 0
-304 -327 0
-304 -328 0
-304 -329 0
-304 -330 0
-304 -331 0
-304 -332 0
-305 -306 0
-305 -307 0
-305 -308 0
-305 -309 0
-305 -310 0
-305 -311 0
-305 -312 0
-305 -313 0
-305 -314 0
-305 -315 0
-305 -316 0
-305 -317 0
-305 -318 0
-305 -319 0
-305 -320 0
-305 -321 0
-305 -322 0
-305 -323 0
-305 -324 0
-305 -325 0
-305 -326 0
-305 -327 0
-305 -328 0
-305 -329 0
-305 -330 0
-305 -331 0
-305 -332 0
-306 -307 0
-306 -308 0
-306 -309 0
-306 -310 0
-306 -311 0
-306 -312 0
-306 -313 0
-306 -314 0
-306 -315 0
-306 -316 0
-306 -317 0
-306 -318 0
-306 -319 0
-306 -320 0
-306 -321 0
-306 -322 0
-306 -323 0
-306 -324 0
-306 -325 0
-306 -326 0
-306 -327 0
-306 -328 0
-306 -329 0
-306 -330 0
-306 -331 0
-306 -332 0
-307 -308 0
-307 -309 0
-307 -310 0
-307 -311 0
-307 -312 0
-307 -313 0
-307 -314 0
-307 -315 0
-307 -316 0
-307 -317 0
-307 -318 0
-307 -319 0
-307 -320 0
-307 -321 0
-307 -322 0
-307 -323 0
-307 -324 0
-307 -325 0
-307 -326 0
-307 -327 0
-307 -328 0
-307 -329 0
-307 -330 0
-307 -331 0
-307 -332 0
-308 -309 0
-308 -310 0
-308 -311 0
-308 -312 0
-308 -313 0
-308 -314 0
-308 -315 0
-308 -316 0
-308 -317 0
-308 -318 0
-308 -319 0
-308 -320 0
-308 -321 0
-308 -322 0
-308 -323 0
-308 -324 0
-308 -325 0
-308 -326 0
-308 -327 0
-308 -328 0
-308 -329 0
-308 -330 0
-308 -331 0
-308 -332 0
-309 -310 0
-309 -311 0
-309 -312 0
-309 -313 0
-309 -314 0
-309 -315 0
-309 -316 0
-309 -317 0
-309 -318 0
-309 -319 0
-309 -320 0
-309 -321 0
-309 -322 0
-309 -323 0
-309 -324 0
-309 -325 0
-309 -326 0
-309 -327 0
-309 -328 0
-309 -329 0
-309 -330 0
-309 -331 0
-309 -332 0
-310 -311 0
-310 -312 0
-310 -313 0
-310 -314 0
-310 -315 0
-310 -316 0
-310 -317 0
-310 -318 0
-310 -319 0
-310 -320 0
-310 -321 0
-310 -322 0
-310 -323 0
-310 -324 0
-310 -325 0
-310 -326 0
-310 -327 0
-310 -328 0
-310 -329 0
-310 -330 0
-310 -331 0
-310 -332 0
-311 -312 0
-311 -313 0
-311 -314 0
-311 -315 0
-311 -316 0
-311 -317 0
-311 -318 0
-311 -319 0
-311 -320 0
-311 -321 0
-311 -322 0
-311 -323 0
-311 -324 0
-311 -325 0
-311 -326 0
-311 -327 0
-311 -328 0
-311 -329 0
-311 -330 0
-311 -331 0
-311 -332 0
-312 -313 0
-312 -314 0
-312 -315 0
-312 -316 0
-312 -317 0
-312 -318 0
-312 -319 0
-312 -320 0
-312 -321 0
-312 -322 0
-312 -323 0
-312 -324 0
-312 -325 0
-312 -326 0
-312 -327 0
-312 -328 0
-312 -329 0
-312 -330 0
-312 -331 0
-312 -332 0
-313 -314 0
-313 -315 0
-313 -316 0
-313 -317 0
-313 -318 0
-313 -319 0
-313 -320 0
-313 -321 0
-313 -322 0
-313 -323 0
-313 -324 0
-313 -325 0
-313 -326 0
-313 -327 0
-313 -328 0
-313 -329 0
-313 -330 0
-313 -331 0
-313 -332 0
-314 -315 0
-314 -316 0
-314 -317 0
-314 -318 0
-314 -319 0
-314 -320 0
-314 -321 0
-314 -322 0
-314 -323 0
-314 -324 0
-314 -325 0
-314 -326 0
-314 -327 0
-314 -328 0
-314 -329 0
-314 -330 0
-314 -331 0
-314 -332 0
-315 -316 0
-315 -317 0
-315 -318 0
-315 -319 0
-315 -320 0
-315 -321 0
-315 -322 0
-315 -323 0
-315 -324 0
-315 -325 0
-315 -326 0
-315 -327 0
-315 -328 0
-315 -329 0
-315 -330 0
-315 -331 0
-315 -332 0
-316 -317 0
-316 -318 0
-316 -319 0
-316 -320 0
-316 -321 0
-316 -322 0
-316 -323 0
-316 -324 0
-316 -325 0
-316 -326 0
-316 -327 0
-316 -328 0
-316 -329 0
-316 -330 0
-316 -331 0
-316 -332 0
-317 -318 0
-317 -319 0
-317 -320 0
-317 -321 0
-317 -322 0
-317 -323 0
-317 -324 0
-317 -325 0
-317 -326 0
-317 -327 0
-317 -328 0
-317 -329 0
-317 -330 0
-317 -331 0
-317 -332 0
-318 -319 0
-318 -320 0
-318 -321 0
-318 -322 0
-318 -323 0
-318 -324 0
-318 -325 0
-318 -326 0
-318 -327 0
-318 -328 0
-318 -329 0
-318 -330 0
-318 -331 0
-318 -332 0
-319 -320 0
-319 -321 0
-319 -322 0
-319 -323 0
-319 -324 0
-319 -325 0
-319 -326 0
-319 -327 0
-319 -328 0
-319 -329 0
-319 -330 0
-319 -331 0
-319 -332 0
-320 -321 0
-320 -322 0
-320 -323 0
-320 -324 0
-320 -325 0
-320 -326 0
-320 -327 0
-320 -328 0
-320 -329 0
-320 -330 0
-320 -331 0
-320 -332 0
-321 -322 0
-321 -323 0
-321 -324 0
-321 -325 0
-321 -326 0
-321 -327 0
-321 -328 0
-321 -329 0
-321 -330 0
-321 -331 0
-321 -332 0
-322 -323 0
-322 -324 0
-322 -325 0
-322 -326 0
-322 -327 0
-322 -328 0
-322 -329 0
-322 -330 0
-322 -331 0
-322 -332 0
-323 -324 0
-323 -325 0
-323 -326 0
-323 -327 0
-323 -328 0
-323 -329 0
-323 -330 0
-323 -331 0
-323 -332 0
-324 -325 0
-324 -326 0
-324 -327 0
-324 -328 0
-324 -329 0
-324 -330 0
-324 -331 0
-324 -332 0
-325 -326 0
-325 -327 0
-325 -328 0
-325 -329 0
-325 -330 0
-325 -331 0
-325 -332 0
-326 -327 0
-326 -328 0
-326 -329 0
-326 -330 0
-326 -331 0
-326 -332 0
-327 -328 0
-327 -329 0
-327 -330 0
-327 -331 0
-327 -332 0
-328 -329 0
-328 -330 0
-328 -331 0
-328 -332 0
-329 -330 0
-329 -331 0
-329 -332 0
-330 -331 0
-330 -332 0
-331 -332 0
-42 249 250 251 252 253 254 255 256 257 258 259 260 261 262 263 264 265 266 267 268 269 270 271 272 83 0
-43 249 250 251 252 253 254 255 256 257 258 259 260 261 262 263 264 265 266 267 268 269 270 271 272 84 0
-44 249 250 251 252 253 254 255 256 257 258 259 260 261 262 263 264 265 266 267 268 269 270 271 272 85 0
-45 249 250 251 252 253 254 255 256 257 258 259 260 261 262 263 264 265 266 267 268 269 270 271 272 86 0
-46 249 250 251 252 253 254 255 256 257 258 259 260 261 262 263 264 265 266 267 268 269 270 271 272 87 0
-47 249 250 251 252 253 254 255 256 257 258 259 260 261 262 263 264 265 266 267 268 269 270 271 272 88 0
-48 249 250 251 252 253 254 255 256 257 258 259 260 261 262 263 264 265 266 267 268 269 270 271 272 89 0
-49 249 250 251 252 253 254 255 256 257 258 259 260 261 262 263 264 265 266 267 268 269 270 271 272 90 0
-50 249 250 251 252 253 254 255 256 257 258 259 260 261 262 263 264 265 266 267 268 269 270 271 272 91 0
-51 249 250 251 252 253 254 255 256 257 258 259 260 261 262 263 264 265 266 267 268 269 270 271 272 92 0
-53 273 274 275 276 277 278 279 280 281 282 283 284 285 286 287 288 289 290 291 292 293 294 295 296 94 0
-54 273 274 275 276 277 278 279 280 281 282 283 284 285 286 287 288 289 290 291 292 293 294 295 296 95 0
-55 273 274 275 276 277 278 279 280 281 282 283 284 285 286 287 288 289 290 291 292 293 294 295 296 96 0
-56 273 274 275 276 277 278 279 280 281 282 283 284 285 286 287 288 289 290 291 292 293 294 295 296 97 0
-57 273 274 275 276 277 278 279 280 281 282 283 284 285 286 287 288 289 290 291 292 293 294 295 296 98 0
-58 273 274 275 276 277 278 279 280 281 282 283 284 285 286 287 288 289 290 291 292 293 294 295 296 99 0
-59 273 274 275 276 277 278 279 280 281 282 283 284 285 286 287 288 289 290 291 292 293 294 295 296 100 0
-60 273 274 275 276 277 278 279 280 281 282 283 284 285 286 287 288 289 290 291 292 293 294 295 296 101 0
-61 273 274 275 276 277 278 279 280 281 282 283 284 285 286 287 288 289 290 291 292 293 294 295 296 102 0
-62 273 274 275 276 277 278 279 280 281 282 283 284 285 286 287 288 289 290 291 292 293 294 295 296 103 0
-64 297 298 299 300 301 302 303 304 305 306 307 308 309 310 311 312 313 314 315 316 105 0
-65 297 298 299 300 301 302 303 304 305 306 307 308 309 310 311 312 313 314 315 316 106 0
-66 297 298 299 300 301 302 303 304 305 306 307 308 309 310 311 312 313 314 315 316 107 0
-67 297 298 299 300 301 302 303 304 305 306 307 308 309 310 311 312 313 314 315 316 108 0
-68 297 298 299 300 301 302 303 304 305 306 307 308 309 310 311 312 313 314 315 316 109 0
-69 297 298 299 300 301 302 303 304 305 306 307 308 309 310 311 312 313 314 315 316 110 0
-70 297 298 299 300 301 302 303 304 305 306 307 308 309 310 311 312 313 314 315 316 111 0
-71 297 298 299 300 301 302 303 304 305 306 307 308 309 310 311 312 313 314 315 316 112 0
-72 297 298 299 300 301 302 303 304 305 306 307 308 309 310 311 312 313 314 315 316 113 0
-74 317 318 319 320 321 322 323 324 325 326 327 328 329 330 331 332 115 0
-75 317 318 319 320 321 322 323 324 325 326 327 328 329 330 331 332 116 0
-76 317 318 319 320 321 322 323 324 325 326 327 328 329 330 331 332 117 0
-77 317 318 319 320 321 322 323 324 325 326 327 328 329 330 331 332 118 0
-78 317 318 319 320 321 322 323 324 325 326 327 328 329 330 331 332 119 0
-79 317 318 319 320 321 322 323 324 325 326 327 328 329 330 331 332 120 0
-80 317 318 319 320 321 322 323 324 325 326 327 328 329 330 331 332 121 0
-81 317 318 319 320 321 322 323 324 325 326 327 328 329 330 331 332 122 0
-333 93 0
-333 124 0
-333 130 0
-334 93 0
-334 104 0
-334 94 0
-334 -100 131 0
-334 -101 132 0
-334 -102 133 0
-334 124 0
-335 93 0
-335 114 0
-335 105 0
-335 -110 131 0
-335 -111 132 0
-335 -112 133 0
-335 124 0
-336 93 0
-336 123 0
-336 115 0
-336 -119 131 0
-336 -120 132 0
-336 -121 133 0
-336 124 0
-337 93 0
-337 125 0
-337 130 0
-338 93 0
-338 104 0
-338 95 0
-338 -100 131 0
-338 -101 132 0
-338 -102 133 0
-338 125 0
-339 93 0
-339 114 0
-339 105 106 0
-339 -110 131 0
-339 -111 132 0
-339 -112 133 0
-339 125 0
-340 93 0
-340 123 0
-340 115 116 0
-340 -119 131 0
-340 -120 132 0
-340 -121 133 0
-340 125 0
-341 93 0
-341 126 0
-341 130 0
-342 93 0
-342 104 0
-342 96 0
-342 -100 131 0
-342 -101 132 0
-342 -102 133 0
-342 126 0
-343 93 0
-343 114 0
-343 106 107 0
-343 -110 131 0
-343 -111 132 0
-343 -112 133 0
-343 126 0
-344 93 0
-344 123 0
-344 115 116 117 0
-344 -119 131 0
-344 -120 132 0
-344 -121 133 0
-344 126 0
-345 93 0
-345 127 0
-345 130 0
-346 93 0
-346 104 0
-346 97 0
-346 -100 131 0
-346 -101 132 0
-346 -102 133 0
-346 127 0
-347 93 0
-347 114 0
-347 107 108 0
-347 -110 131 0
-347 -111 132 0
-347 -112 133 0
-347 127 0
-348 93 0
-348 123 0
-348 116 117 118 0
-348 -119 131 0
-348 -120 132 0
-348 -121 133 0
-348 127 0
-349 93 0
-349 128 0
-349 130 0
-350 93 0
-350 104 0
-350 98 0
-350 -100 131 0
-350 -101 132 0
-350 -102 133 0
-350 128 0
-351 93 0
-351 114 0
-351 108 109 0
-351 -110 131 0
-351 -111 132 0
-351 -112 133 0
-351 128 0
-352 93 0
-352 123 0
-352 117 118 0
-352 -119 131 0
-352 -120 132 0
-352 -121 133 0
-352 128 0
-353 93 0
-353 129 0
-353 130 0
-354 93 0
-354 104 0
-354 99 0
-354 -100 131 0
-354 -101 132 0
-354 -102 133 0
-354 129 0
-355 93 0
-355 114 0
-355 109 0
-355 -110 131 0
-355 -111 132 0
-355 -112 133 0
-355 129 0
-356 93 0
-356 123 0
-356 118 0
-356 -119 131 0
-356 -120 132 0
-356 -121 133 0
-356 129 0
-357 104 0
-357 135 0
-357 141 0
-358 104 0
-358 93 0
-358 83 0
-358 -89 142 0
-358 -90 143 0
-358 -91 144 0
-358 135 0
-359 104 0
-359 114 0
-359 105 0
-359 -110 142 0
-359 -111 143 0
-359 -112 144 0
-359 135 0
-360 104 0
-360 123 0
-360 115 0
-360 -119 142 0
-360 -120 143 0
-360 -121 144 0
-360 135 0
-361 104 0
-361 136 0
-361 141 0
-362 104 0
-362 93 0
-362 84 0
-362 -89 142 0
-362 -90 143 0
-362 -91 144 0
-362 136 0
-363 104 0
-363 114 0
-363 105 106 0
-363 -110 142 0
-363 -111 143 0
-363 -112 144 0
-363 136 0
-364 104 0
-364 123 0
-364 115 116 0
-364 -119 142 0
-364 -120 143 0
-364 -121 144 0
-364 136 0
-365 104 0
-365 137 0
-365 141 0
-366 104 0
-366 93 0
-366 85 0
-366 -89 142 0
-366 -90 143 0
-366 -91 144 0
-366 137 0
-367 104 0
-367 114 0
-367 106 107 0
-367 -110 142 0
-367 -111 143 0
-367 -112 144 0
-367 137 0
-368 104 0
-368 123 0
-368 115 116 117 0
-368 -119 142 0
-368 -120 143 0
-368 -121 144 0
-368 137 0
-369 104 0
-369 138 0
-369 141 0
-370 104 0
-370 93 0
-370 86 0
-370 -89 142 0
-370 -90 143 0
-370 -91 144 0
-370 138 0
-371 104 0
-371 114 0
-371 107 108 0
-371 -110 142 0
-371 -111 143 0
-371 -112 144 0
-371 138 0
-372 104 0
-372 123 0
-372 116 117 118 0
-372 -119 142 0
-372 -120 143 0
-372 -121 144 0
-372 138 0
-373 104 0
-373 139 0
-373 141 0
-374 104 0
-374 93 0
-374 87 0
-374 -89 142 0
-374 -90 143 0
-374 -91 144 0
-374 139 0
-375 104 0
-375 114 0
-375 108 109 0
-375 -110 142 0
-375 -111 143 0
-375 -112 144 0
-375 139 0
-376 104 0
-376 123 0
-376 117 118 0
-376 -119 142 0
-376 -120 143 0
-376 -121 144 0
-376 139 0
-377 104 0
-377 140 0
-377 141 0
-378 104 0
-378 93 0
-378 88 0
-378 -89 142 0
-378 -90 143 0
-378 -91 144 0
-378 140 0
-379 104 0
-379 114 0
-379 109 0
-379 -110 142 0
-379 -111 143 0
-379 -112 144 0
-379 140 0
-380 104 0
-380 123 0
-380 118 0
-380 -119 142 0
-380 -120 143 0
-380 -121 144 0
-380 140 0
-381 114 0
-381 146 0
-381 151 0
-382 114 0
-382 93 0
-382 83 84 0
-382 -89 152 0
-382 -90 153 0
-382 -91 154 0
-382 146 0
-383 114 0
-383 104 0
-383 94 95 0
-383 -100 152 0
-383 -101 153 0
-383 -102 154 0
-383 146 0
-384 114 0
-384 123 0
-384 115 116 0
-384 -119 152 0
-384 -120 153 0
-384 -121 154 0
-384 146 0
-385 114 0
-385 147 0
-385 151 0
-386 114 0
-386 93 0
-386 84 85 0
-386 -89 152 0
-386 -90 153 0
-386 -91 154 0
-386 147 0
-387 114 0
-387 104 0
-387 95 96 0
-387 -100 152 0
-387 -101 153 0
-387 -102 154 0
-387 147 0
-388 114 0
-388 123 0
-388 115 116 117 0
-388 -119 152 0
-388 -120 153 0
-388 -121 154 0
-388 147 0
-389 114 0
-389 148 0
-389 151 0
-390 114 0
-390 93 0
-390 85 86 0
-390 -89 152 0
-390 -90 153 0
-390 -91 154 0
-390 148 0
-391 114 0
-391 104 0
-391 96 97 0
-391 -100 152 0
-391 -101 153 0
-391 -102 154 0
-391 148 0
-392 114 0
-392 123 0
-392 115 116 117 118 0
-392 -119 152 0
-392 -120 153 0
-392 -121 154 0
-392 148 0
-393 114 0
-393 149 0
-393 151 0
-394 114 0
-394 93 0
-394 86 87 0
-394 -89 152 0
-394 -90 153 0
-394 -91 154 0
-394 149 0
-395 114 0
-395 104 0
-395 97 98 0
-395 -100 152 0
-395 -101 153 0
-395 -102 154 0
-395 149 0
-396 114 0
-396 123 0
-396 116 117 118 0
-396 -119 152 0
-396 -120 153 0
-396 -121 154 0
-396 149 0
-397 114 0
-397 150 0
-397 151 0
-398 114 0
-398 93 0
-398 87 88 0
-398 -89 152 0
-398 -90 153 0
-398 -91 154 0
-398 150 0
-399 114 0
-399 104 0
-399 98 99 0
-399 -100 152 0
-399 -101 153 0
-399 -102 154 0
-399 150 0
-400 114 0
-400 123 0
-400 117 118 0
-400 -119 152 0
-400 -120 153 0
-400 -121 154 0
-400 150 0
-401 123 0
-401 156 0
-401 160 0
-402 123 0
-402 93 0
-402 83 84 85 0
-402 -89 161 0
-402 -90 162 0
-402 -91 163 0
-402 156 0
-403 123 0
-403 104 0
-403 94 95 96 0
-403 -100 161 0
-403 -101 162 0
-403 -102 163 0
-403 156 0
-404 123 0
-404 114 0
-404 105 106 107 0
-404 -110 161 0
-404 -111 162 0
-404 -112 163 0
-404 156 0
-405 123 0
-405 157 0
-405 160 0
-406 123 0
-406 93 0
-406 84 85 86 0
-406 -89 161 0
-406 -90 162 0
-406 -91 163 0
-406 157 0
-407 123 0
-407 104 0
-407 95 96 97 0
-407 -100 161 0
-407 -101 162 0
-407 -102 163 0
-407 157 0
-408 123 0
-408 114 0
-408 105 106 107 108 0
-408 -110 161 0
-408 -111 162 0
-408 -112 163 0
-408 157 0
-409 123 0
-409 158 0
-409 160 0
-410 123 0
-410 93 0
-410 85 86 87 0
-410 -89 161 0
-410 -90 162 0
-410 -91 163 0
-410 158 0
-411 123 0
-411 104 0
-411 96 97 98 0
-411 -100 161 0
-411 -101 162 0
-411 -102 163 0
-411 158 0
-412 123 0
-412 114 0
-412 106 107 108 109 0
-412 -110 161 0
-412 -111 162 0
-412 -112 163 0
-412 158 0
-413 123 0
-413 159 0
-413 160 0
-414 123 0
-414 93 0
-414 86 87 88 0
-414 -89 161 0
-414 -90 162 0
-414 -91 163 0
-414 159 0
-415 123 0
-415 104 0
-415 97 98 99 0
-415 -100 161 0
-415 -101 162 0
-415 -102 163 0
-415 159 0
-416 123 0
-416 114 0
-416 107 108 109 0
-416 -110 161 0
-416 -111 162 0
-416 -112 163 0
-416 159 0
333 334 335 336 337 338 339 340 341 342 343 344 345 346 347 348 349 350 351 352 353 354 355 356 357 358 359 360 361 362 363 364 365 366 367 368 369 370 371 372 373 374 375 376 377 378 379 380 381 382 383 384 385 386 387 388 389 390 391 392 393 394 395 396 397 398 399 400 401 402 403 404 405 406 407 408 409 410 411 412 413 414 415 416 0
-333 -334 0
-333 -335 0
-333 -336 0
-333 -337 0
-333 -338 0
-333 -339 0
-333 -340 0
-333 -341 0
-333 -342 0
-333 -343 0
-333 -344 0
-333 -345 0
-333 -346 0
-333 -347 0
-333 -348 0
-333 -349 0
-333 -350 0
-333 -351 0
-333 -352 0
-333 -353 0
-333 -354 0
-333 -355 0
-333 -356 0
-333 -357 0
-333 -358 0
-333 -359 0
-333 -360 0
-333 -361 0
-333 -362 0
-333 -363 0
-333 -364 0
-333 -365 0
-333 -366 0
-333 -367 0
-333 -368 0
-333 -369 0
-333 -370 0
-333 -371 0
-333 -372 0
-333 -373 0
-333 -374 0
-333 -375 0
-333 -376 0
-333 -377 0
-333 -378 0
-333 -379 0
-333 -380 0
-333 -381 0
-333 -382 0
-333 -383 0
-333 -384 0
-333 -385 0
-333 -386 0
-333 -387 0
-333 -388 0
-333 -389 0
-333 -390 0
-333 -391 0
-333 -392 0
-333 -393 0
-333 -394 0
-333 -395 0
-333 -396 0
-333 -397 0
-333 -398 0
-333 -399 0
-333 -400 0
-333 -401 0
-333 -402 0
-333 -403 0
-333 -404 0
-333 -405 0
-333 -406 0
-333 -407 0
-333 -408 0
-333 -409 0
-333 -410 0
-333 -411 0
-333 -412 0
-333 -413 0
-333 -414 0
-333 -415 0
-333 -416 0
-334 -335 0
-334 -336 0
-334 -337 0
-334 -338 0
-334 -339 0
-334 -340 0
-334 -341 0
-334 -342 0
-334 -343 0
-334 -344 0
-334 -345 0
-334 -346 0
-334 -347 0
-334 -348 0
-334 -349 0
-334 -350 0
-334 -351 0
-334 -352 0
-334 -353 0
-334 -354 0
-334 -355 0
-334 -356 0
-334 -357 0
-334 -358 0
-334 -359 0
-334 -360 0
-334 -361 0
-334 -362 0
-334 -363 0
-334 -364 0
-334 -365 0
-334 -366 0
-334 -367 0
-334 -368 0
-334 -369 0
-334 -370 0
-334 -371 0
-334 -372 0
-334 -373 0
-334 -374 0
-334 -375 0
-334 -376 0
-334 -377 0
-334 -378 0
-334 -379 0
-334 -380 0
-334 -381 0
-334 -382 0
-334 -383 0
-334 -384 0
-334 -385 0
-334 -386 0
-334 -387 0
-334 -388 0
-334 -389 0
-334 -390 0
-334 -391 0
-334 -392 0
-334 -393 0
-334 -394 0
-334 -395 0
-334 -396 0
-334 -397 0
-334 -398 0
-334 -399 0
-334 -400 0
-334 -401 0
-334 -402 0
-334 -403 0
-334 -404 0
-334 -405 0
-334 -406 0
-334 -407 0
-334 -408 0
-334 -409 0
-334 -410 0
-334 -411 0
-334 -412 0
-334 -413 0
-334 -414 0
-334 -415 0
-334 -416 0
-335 -336 0
-335 -337 0
-335 -338 0
-335 -339 0
-335 -340 0
-335 -341 0
-335 -342 0
-335 -343 0
-335 -344 0
-335 -345 0
-335 -346 0
-335 -347 0
-335 -348 0
-335 -349 0
-335 -350 0
-335 -351 0
-335 -352 0
-335 -353 0
-335 -354 0
-335 -355 0
-335 -356 0
-335 -357 0
-335 -358 0
-335 -359 0
-335 -360 0
-335 -361 0
-335 -362 0
-335 -363 0
-335 -364 0
-335 -365 0
-335 -366 0
-335 -367 0
-335 -368 0
-335 -369 0
-335 -370 0
-335 -371 0
-335 -372 0
-335 -373 0
-335 -374 0
-335 -375 0
-335 -376 0
-335 -377 0
-335 -378 0
-335 -379 0
-335 -380 0
-335 -381 0
-335 -382 0
-335 -383 0
-335 -384 0
-335 -385 0
-335 -386 0
-335 -387 0
-335 -388 0
-335 -389 0
-335 -390 0
-335 -391 0
-335 -392 0
-335 -393 0
-335 -394 0
-335 -395 0
-335 -396 0
-335 -397 0
-335 -398 0
-335 -399 0
-335 -400 0
-335 -401 0
-335 -402 0
-335 -403 0
-335 -404 0
-335 -405 0
-335 -406 0
-335 -407 0
-335 -408 0
-335 -409 0
-335 -410 0
-335 -411 0
-335 -412 0
-335 -413 0
-335 -414 0
-335 -415 0
-335 -416 0
-336 -337 0
-336 -338 0
-336 -339 0
-336 -340 0
-336 -341 0
-336 -342 0
-336 -343 0
-336 -344 0
-336 -345 0
-336 -346 0
-336 -347 0
-336 -348 0
-336 -349 0
-336 -350 0
-336 -351 0
-336 -352 0
-336 -353 0
-336 -354 0
-336 -355 0
-336 -356 0
-336 -357 0
-336 -358 0
-336 -359 0
-336 -360 0
-336 -361 0
-336 -362 0
-336 -363 0
-336 -364 0
-336 -365 0
-336 -366 0
-336 -367 0
-336 -368 0
-336 -369 0
-336 -370 0
-336 -371 0
-336 -372 0
-336 -373 0
-336 -374 0
-336 -375 0
-336 -376 0
-336 -377 0
-336 -378 0
-336 -379 0
-336 -380 0
-336 -381 0
-336 -382 0
-336 -383 0
-336 -384 0
-336 -385 0
-336 -386 0
-336 -387 0
-336 -388 0
-336 -389 0
-336 -390 0
-336 -391 0
-336 -392 0
-336 -393 0
-336 -394 0
-336 -395 0
-336 -396 0
-336 -397 0
-336 -398 0
-336 -399 0
-336 -400 0
-336 -401 0
-336 -402 0
-336 -403 0
-336 -404 0
-336 -405 0
-336 -406 0
-336 -407 0
-336 -408 0
-336 -409 0
-336 -410 0
-336 -411 0
-336 -412 0
-336 -413 0
-336 -414 0
-336 -415 0
-336 -416 0
-337 -338 0
-337 -339 0
-337 -340 0
-337 -341 0
-337 -342 0
-337 -343 0
-337 -344 0
-337 -345 0
-337 -346 0
-337 -347 0
-337 -348 0
-337 -349 0
-337 -350 0
-337 -351 0
-337 -352 0
-337 -353 0
-337 -354 0
-337 -355 0
-337 -356 0
-337 -357 0
-337 -358 0
-337 -359 0
-337 -360 0
-337 -361 0
-337 -362 0
-337 -363 0
-337 -364 0
-337 -365 0
-337 -366 0
-337 -367 0
-337 -368 0
-337 -369 0
-337 -370 0
-337 -371 0
-337 -372 0
-337 -373 0
-337 -374 0
-337 -375 0
-337 -376 0
-337 -377 0
-337 -378 0
-337 -379 0
-337 -380 0
-337 -381 0
-337 -382 0
-337 -383 0
-337 -384 0
-337 -385 0
-337 -386 0
-337 -387 0
-337 -388 0
-337 -389 0
-337 -390 0
-337 -391 0
-337 -392 0
-337 -393 0
-337 -394 0
-337 -395 0
-337 -396 0
-337 -397 0
-337 -398 0
-337 -399 0
-337 -400 0
-337 -401 0
-337 -402 0
-337 -403 0
-337 -404 0
-337 -405 0
-337 -406 0
-337 -407 0
-337 -408 0
-337 -409 0
-337 -410 0
-337 -411 0
-337 -412 0
-337 -413 0
-337 -414 0
-337 -415 0
-337 -416 0
-338 -339 0
-338 -340 0
-338 -341 0
-338 -342 0
-338 -343 0
-338 -344 0
-338 -345 0
-338 -346 0
-338 -347 0
-338 -348 0
-338 -349 0
-338 -350 0
-338 -351 0
-338 -352 0
-338 -353 0
-338 -354 0
-338 -355 0
-338 -356 0
-338 -357 0
-338 -358 0
-338 -359 0
-338 -360 0
-338 -361 0
-338 -362 0
-338 -363 0
-338 -364 0
-338 -365 0
-338 -366 0
-338 -367 0
-338 -368 0
-338 -369 0
-338 -370 0
-338 -371 0
-338 -372 0
-338 -373 0
-338 -374 0
-338 -375 0
-338 -376 0
-338 -377 0
-338 -378 0
-338 -379 0
-338 -380 0
-338 -381 0
-338 -382 0
-338 -383 0
-338 -384 0
-338 -385 0
-338 -386 0
-338 -387 0
-338 -388 0
-338 -389 0
-338 -390 0
-338 -391 0
-338 -392 0
-338 -393 0
-338 -394 0
-338 -395 0
-338 -396 0
-338 -397 0
-338 -398 0
-338 -399 0
-338 -400 0
-338 -401 0
-338 -402 0
-338 -403 0
-338 -404 0
-338 -405 0
-338 -406 0
-338 -407 0
-338 -408 0
-338 -409 0
-338 -410 0
-338 -411 0
-338 -412 0
-338 -413 0
-338 -414 0
-338 -415 0
-338 -416 0
-339 -340 0
-339 -341 0
-339 -342 0
-339 -343 0
-339 -344 0
-339 -345 0
-339 -346 0
-339 -347 0
-339 -348 0
-339 -349 0
-339 -350 0
-339 -351 0
-339 -352 0
-339 -353 0
-339 -354 0
-339 -355 0
-339 -356 0
-339 -357 0
-339 -358 0
-339 -359 0
-339 -360 0
-339 -361 0
-339 -362 0
-339 -363 0
-339 -364 0
-339 -365 0
-339 -366 0
-339 -367 0
-339 -368 0
-339 -369 0
-339 -370 0
-339 -371 0
-339 -372 0
-339 -373 0
-339 -374 0
-339 -375 0
-339 -376 0
-339 -377 0
-339 -378 0
-339 -379 0
-339 -380 0
-339 -381 0
-339 -382 0
-339 -383 0
-339 -384 0
-339 -385 0
-339 -386 0
-339 -387 0
-339 -388 0
-339 -389 0
-339 -390 0
-339 -391 0
-339 -392 0
-339 -393 0
-339 -394 0
-339 -395 0
-339 -396 0
-339 -397 0
-339 -398 0
-339 -399 0
-339 -400 0
-339 -401 0
-339 -402 0
-339 -403 0
-339 -404 0
-339 -405 0
-339 -406 0
-339 -407 0
-339 -408 0
-339 -409 0
-339 -410 0
-339 -411 0
-339 -412 0
-339 -413 0
-339 -414 0
-339 -415 0
-339 -416 0
-340 -341 0
-340 -342 0
-340 -343 0
-340 -344 0
-340 -345 0
-340 -346 0
-340 -347 0
-340 -348 0
-340 -349 0
-340 -350 0
-340 -351 0
-340 -352 0
-340 -353 0
-340 -354 0
-340 -355 0
-340 -356 0
-340 -357 0
-340 -358 0
-340 -359 0
-340 -360 0
-340 -361 0
-340 -362 0
-340 -363 0
-340 -364 0
-340 -365 0
-340 -366 0
-340 -367 0
-340 -368 0
-340 -369 0
-340 -370 0
-340 -371 0
-340 -372 0
-340 -373 0
-340 -374 0
-340 -375 0
-340 -376 0
-340 -377 0
-340 -378 0
-340 -379 0
-340 -380 0
-340 -381 0
-340 -382 0
-340 -383 0
-340 -384 0
-340 -385 0
-340 -386 0
-340 -387 0
-340 -388 0
-340 -389 0
-340 -390 0
-340 -391 0
-340 -392 0
-340 -393 0
-340 -394 0
-340 -395 0
-340 -396 0
-340 -397 0
-340 -398 0
-340 -399 0
-340 -400 0
-340 -401 0
-340 -402 0
-340 -403 0
-340 -404 0
-340 -405 0
-340 -406 0
-340 -407 0
-340 -408 0
-340 -409 0
-340 -410 0
-340 -411 0
-340 -412 0
-340 -413 0
-340 -414 0
-340 -415 0
-340 -416 0
-341 -342 0
-341 -343 0
-341 -344 0
-341 -345 0
-341 -346 0
-341 -347 0
-341 -348 0
-341 -349 0
-341 -350 0
-341 -351 0
-341 -352 0
-341 -353 0
-341 -354 0
-341 -355 0
-341 -356 0
-341 -357 0
-341 -358 0
-341 -359 0
-341 -360 0
-341 -361 0
-341 -362 0
-341 -363 0
-341 -364 0
-341 -365 0
-341 -366 0
-341 -367 0
-341 -368 0
-341 -369 0
-341 -370 0
-341 -371 0
-341 -372 0
-341 -373 0
-341 -374 0
-341 -375 0
-341 -376 0
-341 -377 0
-341 -378 0
-341 -379 0
-341 -380 0
-341 -381 0
-341 -382 0
-341 -383 0
-341 -384 0
-341 -385 0
-341 -386 0
-341 -387 0
-341 -388 0
-341 -389 0
-341 -390 0
-341 -391 0
-341 -392 0
-341 -393 0
-341 -394 0
-341 -395 0
-341 -396 0
-341 -397 0
-341 -398 0
-341 -399 0
-341 -400 0
-341 -401 0
-341 -402 0
-341 -403 0
-341 -404 0
-341 -405 0
-341 -406 0
-341 -407 0
-341 -408 0
-341 -409 0
-341 -410 0
-341 -411 0
-341 -412 0
-341 -413 0
-341 -414 0
-341 -415 0
-341 -416 0
-342 -343 0
-342 -344 0
-342 -345 0
-342 -346 0
-342 -347 0
-342 -348 0
-342 -349 0
-342 -350 0
-342 -351 0
-342 -352 0
-342 -353 0
-342 -354 0
-342 -355 0
-342 -356 0
-342 -357 0
-342 -358 0
-342 -359 0
-342 -360 0
-342 -361 0
-342 -362 0
-342 -363 0
-342 -364 0
-342 -365 0
-342 -366 0
-342 -367 0
-342 -368 0
-342 -369 0
-342 -370 0
-342 -371 0
-342 -372 0
-342 -373 0
-342 -374 0
-342 -375 0
-342 -376 0
-342 -377 0
-342 -378 0
-342 -379 0
-342 -380 0
-342 -381 0
-342 -382 0
-342 -383 0
-342 -384 0
-342 -385 0
-342 -386 0
-342 -387 0
-342 -388 0
-342 -389 0
-342 -390 0
-342 -391 0
-342 -392 0
-342 -393 0
-342 -394 0
-342 -395 0
-342 -396 0
-342 -397 0
-342 -398 0
-342 -399 0
-342 -400 0
-342 -401 0
-342 -402 0
-342 -403 0
-342 -404 0
-342 -405 0
-342 -406 0
-342 -407 0
-342 -408 0
-342 -409 0
-342 -410 0
-342 -411 0
-342 -412 0
-342 -413 0
-342 -414 0
-342 -415 0
-342 -416 0
-343 -344 0
-343 -345 0
-343 -346 0
-343 -347 0
-343 -348 0
-343 -349 0
-343 -350 0
-343 -351 0
-343 -352 0
-343 -353 0
-343 -354 0
-343 -355 0
-343 -356 0
-343 -357 0
-343 -358 0
-343 -359 0
-343 -360 0
-343 -361 0
-343 -362 0
-343 -363 0
-343 -364 0
-343 -365 0
-343 -366 0
-343 -367 0
-343 -368 0
-343 -369 0
-343 -370 0
-343 -371 0
-343 -372 0
-343 -373 0
-343 -374 0
-343 -375 0
-343 -376 0
-343 -377 0
-343 -378 0
-343 -379 0
-343 -380 0
-343 -381 0
-343 -382 0
-343 -383 0
-343 -384 0
-343 -385 0
-343 -386 0
-343 -387 0
-343 -388 0
-343 -389 0
-343 -390 0
-343 -391 0
-343 -392 0
-343 -393 0
-343 -394 0
-343 -395 0
-343 -396 0
-343 -397 0
-343 -398 0
-343 -399 0
-343 -400 0
-343 -401 0
-343 -402 0
-343 -403 0
-343 -404 0
-343 -405 0
-343 -406 0
-343 -407 0
-343 -408 0
-343 -409 0
-343 -410 0
-343 -411 0
-343 -412 0
-343 -413 0
-343 -414 0
-343 -415 0
-343 -416 0
-344 -345 0
-344 -346 0
-344 -347 0
-344 -348 0
-344 -349 0
-344 -350 0
-344 -351 0
-344 -352 0
-344 -353 0
-344 -354 0
-344 -355 0
-344 -356 0
-344 -357 0
-344 -358 0
-344 -359 0
-344 -360 0
-344 -361 0
-344 -362 0
-344 -363 0
-344 -364 0
-344 -365 0
-344 -366 0
-344 -367 0
-344 -368 0
-344 -369 0
-344 -370 0
-344 -371 0
-344 -372 0
-344 -373 0
-344 -374 0
-344 -375 0
-344 -376 0
-344 -377 0
-344 -378 0
-344 -379 0
-344 -380 0
-344 -381 0
-344 -382 0
-344 -383 0
-344 -384 0
-344 -385 0
-344 -386 0
-344 -387 0
-344 -388 0
-344 -389 0
-344 -390 0
-344 -391 0
-344 -392 0
-344 -393 0
-344 -394 0
-344 -395 0
-344 -396 0
-344 -397 0
-344 -398 0
-344 -399 0
-344 -400 0
-344 -401 0
-344 -402 0
-344 -403 0
-344 -404 0
-344 -405 0
-344 -406 0
-344 -407 0
-344 -408 0
-344 -409 0
-344 -410 0
-344 -411 0
-344 -412 0
-344 -413 0
-344 -414 0
-344 -415 0
-344 -416 0
-345 -346 0
-345 -347 0
-345 -348 0
-345 -349 0
-345 -350 0
-345 -351 0
-345 -352 0
-345 -353 0
-345 -354 0
-345 -355 0
-345 -356 0
-345 -357 0
-345 -358 0
-345 -359 0
-345 -360 0
-345 -361 0
-345 -362 0
-345 -363 0
-345 -364 0
-345 -365 0
-345 -366 0
-345 -367 0
-345 -368 0
-345 -369 0
-345 -370 0
-345 -371 0
-345 -372 0
-345 -373 0
-345 -374 0
-345 -375 0
-345 -376 0
-345 -377 0
-345 -378 0
-345 -379 0
-345 -380 0
-345 -381 0
-345 -382 0
-345 -383 0
-345 -384 0
-345 -385 0
-345 -386 0
-345 -387 0
-345 -388 0
-345 -389 0
-345 -390 0
-345 -391 0
-345 -392 0
-345 -393 0
-345 -394 0
-345 -395 0
-345 -396 0
-345 -397 0
-345 -398 0
-345 -399 0
-345 -400 0
-345 -401 0
-345 -402 0
-345 -403 0
-345 -404 0
-345 -405 0
-345 -406 0
-345 -407 0
-345 -408 0
-345 -409 0
-345 -410 0
-345 -411 0
-345 -412 0
-345 -413 0
-345 -414 0
-345 -415 0
-345 -416 0
-346 -347 0
-346 -348 0
-346 -349 0
-346 -350 0
-346 -351 0
-346 -352 0
-346 -353 0
-346 -354 0
-346 -355 0
-346 -356 0
-346 -357 0
-346 -358 0
-346 -359 0
-346 -360 0
-346 -361 0
-346 -362 0
-346 -363 0
-346 -364 0
-346 -365 0
-346 -366 0
-346 -367 0
-346 -368 0
-346 -369 0
-346 -370 0
-346 -371 0
-346 -372 0
-346 -373 0
-346 -374 0
-346 -375 0
-346 -376 0
-346 -377 0
-346 -378 0
-346 -379 0
-346 -380 0
-346 -381 0
-346 -382 0
-346 -383 0
-346 -384 0
-346 -385 0
-346 -386 0
-346 -387 0
-346 -388 0
-346 -389 0
-346 -390 0
-346 -391 0
-346 -392 0
-346 -393 0
-346 -394 0
-346 -395 0
-346 -396 0
-346 -397 0
-346 -398 0
-346 -399 0
-346 -400 0
-346 -401 0
-346 -402 0
-346 -403 0
-346 -404 0
-346 -405 0
-346 -406 0
-346 -407 0
-346 -408 0
-346 -409 0
-346 -410 0
-346 -411 0
-346 -412 0
-346 -413 0
-346 -414 0
-346 -415 0
-346 -416 0
-347 -348 0
-347 -349 0
-347 -350 0
-347 -351 0
-347 -352 0
-347 -353 0
-347 -354 0
-347 -355 0
-347 -356 0
-347 -357 0
-347 -358 0
-347 -359 0
-347 -360 0
-347 -361 0
-347 -362 0
-347 -363 0
-347 -364 0
-347 -365 0
-347 -366 0
-347 -367 0
-347 -368 0
-347 -369 0
-347 -370 0
-347 -371 0
-347 -372 0
-347 -373 0
-347 -374 0
-347 -375 0
-347 -376 0
-347 -377 0
-347 -378 0
-347 -379 0
-347 -380 0
-347 -381 0
-347 -382 0
-347 -383 0
-347 -384 0
-347 -385 0
-347 -386 0
-347 -387 0
-347 -388 0
-347 -389 0
-347 -390 0
-347 -391 0
-347 -392 0
-347 -393 0
-347 -394 0
-347 -395 0
-347 -396 0
-347 -397 0
-347 -398 0
-347 -399 0
-347 -400 0
-347 -401 0
-347 -402 0
-347 -403 0
-347 -404 0
-347 -405 0
-347 -406 0
-347 -407 0
-347 -408 0
-347 -409 0
-347 -410 0
-347 -411 0
-347 -412 0
-347 -413 0
-347 -414 0
-347 -415 0
-347 -416 0
-348 -349 0
-348 -350 0
-348 -351 0
-348 -352 0
-348 -353 0
-348 -354 0
-348 -355 0
-348 -356 0
-348 -357 0
-348 -358 0
-348 -359 0
-348 -360 0
-348 -361 0
-348 -362 0
-348 -363 0
-348 -364 0
-348 -365 0
-348 -366 0
-348 -367 0
-348 -368 0
-348 -369 0
-348 -370 0
-348 -371 0
-348 -372 0
-348 -373 0
-348 -374 0
-348 -375 0
-348 -376 0
-348 -377 0
-348 -378 0
-348 -379 0
-348 -380 0
-348 -381 0
-348 -382 0
-348 -383 0
-348 -384 0
-348 -385 0
-348 -386 0
-348 -387 0
-348 -388 0
-348 -389 0
-348 -390 0
-348 -391 0
-348 -392 0
-348 -393 0
-348 -394 0
-348 -395 0
-348 -396 0
-348 -397 0
-348 -398 0
-348 -399 0
-348 -400 0
-348 -401 0
-348 -402 0
-348 -403 0
-348 -404 0
-348 -405 0
-348 -406 0
-348 -407 0
-348 -408 0
-348 -409 0
-348 -410 0
-348 -411 0
-348 -412 0
-348 -413 0
-348 -414 0
-348 -415 0
-348 -416 0
-349 -350 0
-349 -351 0
-349 -352 0
-349 -353 0
-349 -354 0
-349 -355 0
-349 -356 0
-349 -357 0
-349 -358 0
-349 -359 0
-349 -360 0
-349 -361 0
-349 -362 0
-349 -363 0
-349 -364 0
-349 -365 0
-349 -366 0
-349 -367 0
-349 -368 0
-349 -369 0
-349 -370 0
-349 -371 0
-349 -372 0
-349 -373 0
-349 -374 0
-349 -375 0
-349 -376 0
-349 -377 0
-349 -378 0
-349 -379 0
-349 -380 0
-349 -381 0
-349 -382 0
-349 -383 0
-349 -384 0
-349 -385 0
-349 -386 0
-349 -387 0
-349 -388 0
-349 -389 0
-349 -390 0
-349 -391 0
-349 -392 0
-349 -393 0
-349 -394 0
-349 -395 0
-349 -396 0
-349 -397 0
-349 -398 0
-349 -399 0
-349 -400 0
-349 -401 0
-349 -402 0
-349 -403 0
-349 -404 0
-349 -405 0
-349 -406 0
-349 -407 0
-349 -408 0
-349 -409 0
-349 -410 0
-349 -411 0
-349 -412 0
-349 -413 0
-349 -414 0
-349 -415 0
-349 -416 0
-350 -351 0
-350 -352 0
-350 -353 0
-350 -354 0
-350 -355 0
-350 -356 0
-350 -357 0
-350 -358 0
-350 -359 0
-350 -360 0
-350 -361 0
-350 -362 0
-350 -363 0
-350 -364 0
-350 -365 0
-350 -366 0
-350 -367 0
-350 -368 0
-350 -369 0
-350 -370 0
-350 -371 0
-350 -372 0
-350 -373 0
-350 -374 0
-350 -375 0
-350 -376 0
-350 -377 0
-350 -378 0
-350 -379 0
-350 -380 0
-350 -381 0
-350 -382 0
-350 -383 0
-350 -384 0
-350 -385 0
-350 -386 0
-350 -387 0
-350 -388 0
-350 -389 0
-350 -390 0
-350 -391 0
-350 -392 0
-350 -393 0
-350 -394 0
-350 -395 0
-350 -396 0
-350 -397 0
-350 -398 0
-350 -399 0
-350 -400 0
-350 -401 0
-350 -402 0
-350 -403 0
-350 -404 0
-350 -405 0
-350 -406 0
-350 -407 0
-350 -408 0
-350 -409 0
-350 -410 0
-350 -411 0
-350 -412 0
-350 -413 0
-350 -414 0
-350 -415 0
-350 -416 0
-351 -352 0
-351 -353 0
-351 -354 0
-351 -355 0
-351 -356 0
-351 -357 0
-351 -358 0
-351 -359 0
-351 -360 0
-351 -361 0
-351 -362 0
-351 -363 0
-351 -364 0
-351 -365 0
-351 -366 0
-351 -367 0
-351 -368 0
-351 -369 0
-351 -370 0
-351 -371 0
-351 -372 0
-351 -373 0
-351 -374 0
-351 -375 0
-351 -376 0
-351 -377 0
-351 -378 0
-351 -379 0
-351 -380 0
-351 -381 0
-351 -382 0
-351 -383 0
-351 -384 0
-351 -385 0
-351 -386 0
-351 -387 0
-351 -388 0
-351 -389 0
-351 -390 0
-351 -391 0
-351 -392 0
-351 -393 0
-351 -394 0
-351 -395 0
-351 -396 0
-351 -397 0
-351 -398 0
-351 -399 0
-351 -400 0
-351 -401 0
-351 -402 0
-351 -403 0
-351 -404 0
-351 -405 0
-351 -406 0
-351 -407 0
-351 -408 0
-351 -409 0
-351 -410 0
-351 -411 0
-351 -412 0
-351 -413 0
-351 -414 0
-351 -415 0
-351 -416 0
-352 -353 0
-352 -354 0
-352 -355 0
-352 -356 0
-352 -357 0
-352 -358 0
-352 -359 0
-352 -360 0
-352 -361 0
-352 -362 0
-352 -363 0
-352 -364 0
-352 -365 0
-352 -366 0
-352 -367 0
-352 -368 0
-352 -369 0
-352 -370 0
-352 -371 0
-352 -372 0
-352 -373 0
-352 -374 0
-352 -375 0
-352 -376 0
-352 -377 0
-352 -378 0
-352 -379 0
-352 -380 0
-352 -381 0
-352 -382 0
-352 -383 0
-352 -384 0
-352 -385 0
-352 -386 0
-352 -387 0
-352 -388 0
-352 -389 0
-352 -390 0
-352 -391 0
-352 -392 0
-352 -393 0
-352 -394 0
-352 -395 0
-352 -396 0
-352 -397 0
-352 -398 0
-352 -399 0
-352 -400 0
-352 -401 0
-352 -402 0
-352 -403 0
-352 -404 0
-352 -405 0
-352 -406 0
-352 -407 0
-352 -408 0
-352 -409 0
-352 -410 0
-352 -411 0
-352 -412 0
-352 -413 0
-352 -414 0
-352 -415 0
-352 -416 0
-353 -354 0
-353 -355 0
-353 -356 0
-353 -357 0
-353 -358 0
-353 -359 0
-353 -360 0
-353 -361 0
-353 -362 0
-353 -363 0
-353 -364 0
-353 -365 0
-353 -366 0
-353 -367 0
-353 -368 0
-353 -369 0
-353 -370 0
-353 -371 0
-353 -372 0
-353 -373 0
-353 -374 0
-353 -375 0
-353 -376 0
-353 -377 0
-353 -378 0
-353 -379 0
-353 -380 0
-353 -381 0
-353 -382 0
-353 -383 0
-353 -384 0
-353 -385 0
-353 -386 0
-353 -387 0
-353 -388 0
-353 -389 0
-353 -390 0
-353 -391 0
-353 -392 0
-353 -393 0
-353 -394 0
-353 -395 0
-353 -396 0
-353 -397 0
-353 -398 0
-353 -399 0
-353 -400 0
-353 -401 0
-353 -402 0
-353 -403 0
-353 -404 0
-353 -405 0
-353 -406 0
-353 -407 0
-353 -408 0
-353 -409 0
-353 -410 0
-353 -411 0
-353 -412 0
-353 -413 0
-353 -414 0
-353 -415 0
-353 -416 0
-354 -355 0
-354 -356 0
-354 -357 0
-354 -358 0
-354 -359 0
-354 -360 0
-354 -361 0
-354 -362 0
-354 -363 0
-354 -364 0
-354 -365 0
-354 -366 0
-354 -367 0
-354 -368 0
-354 -369 0
-354 -370 0
-354 -371 0
-354 -372 0
-354 -373 0
-354 -374 0
-354 -375 0
-354 -376 0
-354 -377 0
-354 -378 0
-354 -379 0
-354 -380 0
-354 -381 0
-354 -382 0
-354 -383 0
-354 -384 0
-354 -385 0
-354 -386 0
-354 -387 0
-354 -388 0
-354 -389 0
-354 -390 0
-354 -391 0
-354 -392 0
-354 -393 0
-354 -394 0
-354 -395 0
-354 -396 0
-354 -397 0
-354 -398 0
-354 -399 0
-354 -400 0
-354 -401 0
-354 -402 0
-354 -403 0
-354 -404 0
-354 -405 0
-354 -406 0
-354 -407 0
-354 -408 0
-354 -409 0
-354 -410 0
-354 -411 0
-354 -412 0
-354 -413 0
-354 -414 0
-354 -415 0
-354 -416 0
-355 -356 0
-355 -357 0
-355 -358 0
-355 -359 0
-355 -360 0
-355 -361 0
-355 -362 0
-355 -363 0
-355 -364 0
-355 -365 0
-355 -366 0
-355 -367 0
-355 -368 0
-355 -369 0
-355 -370 0
-355 -371 0
-355 -372 0
-355 -373 0
-355 -374 0
-355 -375 0
-355 -376 0
-355 -377 0
-355 -378 0
-355 -379 0
-355 -380 0
-355 -381 0
-355 -382 0
-355 -383 0
-355 -384 0
-355 -385 0
-355 -386 0
-355 -387 0
-355 -388 0
-355 -389 0
-355 -390 0
-355 -391 0
-355 -392 0
-355 -393 0
-355 -394 0
-355 -395 0
-355 -396 0
-355 -397 0
-355 -398 0
-355 -399 0
-355 -400 0
-355 -401 0
-355 -402 0
-355 -403 0
-355 -404 0
-355 -405 0
-355 -406 0
-355 -407 0
-355 -408 0
-355 -409 0
-355 -410 0
-355 -411 0
-355 -412 0
-355 -413 0
-355 -414 0
-355 -415 0
-355 -416 0
-356 -357 0
-356 -358 0
-356 -359 0
-356 -360 0
-356 -361 0
-356 -362 0
-356 -363 0
-356 -364 0
-356 -365 0
-356 -366 0
-356 -367 0
-356 -368 0
-356 -369 0
-356 -370 0
-356 -371 0
-356 -372 0
-356 -373 0
-356 -374 0
-356 -375 0
-356 -376 0
-356 -377 0
-356 -378 0
-356 -379 0
-356 -380 0
-356 -381 0
-356 -382 0
-356 -383 0
-356 -384 0
-356 -385 0
-356 -386 0
-356 -387 0
-356 -388 0
-356 -389 0
-356 -390 0
-356 -391 0
-356 -392 0
-356 -393 0
-356 -394 0
-356 -395 0
-356 -396 0
-356 -397 0
-356 -398 0
-356 -399 0
-356 -400 0
-356 -401 0
-356 -402 0
-356 -403 0
-356 -404 0
-356 -405 0
-356 -406 0
-356 -407 0
-356 -408 0
-356 -409 0
-356 -410 0
-356 -411 0
-356 -412 0
-356 -413 0
-356 -414 0
-356 -415 0
-356 -416 0
-357 -358 0
-357 -359 0
-357 -360 0
-357 -361 0
-357 -362 0
-357 -363 0
-357 -364 0
-357 -365 0
-357 -366 0
-357 -367 0
-357 -368 0
-357 -369 0
-357 -370 0
-357 -371 0
-357 -372 0
-357 -373 0
-357 -374 0
-357 -375 0
-357 -376 0
-357 -377 0
-357 -378 0
-357 -379 0
-357 -380 0
-357 -381 0
-357 -382 0
-357 -383 0
-357 -384 0
-357 -385 0
-357 -386 0
-357 -387 0
-357 -388 0
-357 -389 0
-357 -390 0
-357 -391 0
-357 -392 0
-357 -393 0
-357 -394 0
-357 -395 0
-357 -396 0
-357 -397 0
-357 -398 0
-357 -399 0
-357 -400 0
-357 -401 0
-357 -402 0
-357 -403 0
-357 -404 0
-357 -405 0
-357 -406 0
-357 -407 0
-357 -408 0
-357 -409 0
-357 -410 0
-357 -411 0
-357 -412 0
-357 -413 0
-357 -414 0
-357 -415 0
-357 -416 0
-358 -359 0
-358 -360 0
-358 -361 0
-358 -362 0
-358 -363 0
-358 -364 0
-358 -365 0
-358 -366 0
-358 -367 0
-358 -368 0
-358 -369 0
-358 -370 0
-358 -371 0
-358 -372 0
-358 -373 0
-358 -374 0
-358 -375 0
-358 -376 0
-358 -377 0
-358 -378 0
-358 -379 0
-358 -380 0
-358 -381 0
-358 -382 0
-358 -383 0
-358 -384 0
-358 -385 0
-358 -386 0
-358 -387 0
-358 -388 0
-358 -389 0
-358 -390 0
-358 -391 0
-358 -392 0
-358 -393 0
-358 -394 0
-358 -395 0
-358 -396 0
-358 -397 0
-358 -398 0
-358 -399 0
-358 -400 0
-358 -401 0
-358 -402 0
-358 -403 0
-358 -404 0
-358 -405 0
-358 -406 0
-358 -407 0
-358 -408 0
-358 -409 0
-358 -410 0
-358 -411 0
-358 -412 0
-358 -413 0
-358 -414 0
-358 -415 0
-358 -416 0
-359 -360 0
-359 -361 0
-359 -362 0
-359 -363 0
-359 -364 0
-359 -365 0
-359 -366 0
-359 -367 0
-359 -368 0
-359 -369 0
-359 -370 0
-359 -371 0
-359 -372 0
-359 -373 0
-359 -374 0
-359 -375 0
-359 -376 0
-359 -377 0
-359 -378 0
-359 -379 0
-359 -380 0
-359 -381 0
-359 -382 0
-359 -383 0
-359 -384 0
-359 -385 0
-359 -386 0
-359 -387 0
-359 -388 0
-359 -389 0
-359 -390 0
-359 -391 0
-359 -392 0
-359 -393 0
-359 -394 0
-359 -395 0
-359 -396 0
-359 -397 0
-359 -398 0
-359 -399 0
-359 -400 0
-359 -401 0
-359 -402 0
-359 -403 0
-359 -404 0
-359 -405 0
-359 -406 0
-359 -407 0
-359 -408 0
-359 -409 0
-359 -410 0
-359 -411 0
-359 -412 0
-359 -413 0
-359 -414 0
-359 -415 0
-359 -416 0
-360 -361 0
-360 -362 0
-360 -363 0
-360 -364 0
-360 -365 0
-360 -366 0
-360 -367 0
-360 -368 0
-360 -369 0
-360 -370 0
-360 -371 0
-360 -372 0
-360 -373 0
-360 -374 0
-360 -375 0
-360 -376 0
-360 -377 0
-360 -378 0
-360 -379 0
-360 -380 0
-360 -381 0
-360 -382 0
-360 -383 0
-360 -384 0
-360 -385 0
-360 -386 0
-360 -387 0
-360 -388 0
-360 -389 0
-360 -390 0
-360 -391 0
-360 -392 0
-360 -393 0
-360 -394 0
-360 -395 0
-360 -396 0
-360 -397 0
-360 -398 0
-360 -399 0
-360 -400 0
-360 -401 0
-360 -402 0
-360 -403 0
-360 -404 0
-360 -405 0
-360 -406 0
-360 -407 0
-360 -408 0
-360 -409 0
-360 -410 0
-360 -411 0
-360 -412 0
-360 -413 0
-360 -414 0
-360 -415 0
-360 -416 0
-361 -362 0
-361 -363 0
-361 -364 0
-361 -365 0
-361 -366 0
-361 -367 0
-361 -368 0
-361 -369 0
-361 -370 0
-361 -371 0
-361 -372 0
-361 -373 0
-361 -374 0
-361 -375 0
-361 -376 0
-361 -377 0
-361 -378 0
-361 -379 0
-361 -380 0
-361 -381 0
-361 -382 0
-361 -383 0
-361 -384 0
-361 -385 0
-361 -386 0
-361 -387 0
-361 -388 0
-361 -389 0
-361 -390 0
-361 -391 0
-361 -392 0
-361 -393 0
-361 -394 0
-361 -395 0
-361 -396 0
-361 -397 0
-361 -398 0
-361 -399 0
-361 -400 0
-361 -401 0
-361 -402 0
-361 -403 0
-361 -404 0
-361 -405 0
-361 -406 0
-361 -407 0
-361 -408 0
-361 -409 0
-361 -410 0
-361 -411 0
-361 -412 0
-361 -413 0
-361 -414 0
-361 -415 0
-361 -416 0
-362 -363 0
-362 -364 0
-362 -365 0
-362 -366 0
-362 -367 0
-362 -368 0
-362 -369 0
-362 -370 0
-362 -371 0
-362 -372 0
-362 -373 0
-362 -374 0
-362 -375 0
-362 -376 0
-362 -377 0
-362 -378 0
-362 -379 0
-362 -380 0
-362 -381 0
-362 -382 0
-362 -383 0
-362 -384 0
-362 -385 0
-362 -386 0
-362 -387 0
-362 -388 0
-362 -389 0
-362 -390 0
-362 -391 0
-362 -392 0
-362 -393 0
-362 -394 0
-362 -395 0
-362 -396 0
-362 -397 0
-362 -398 0
-362 -399 0
-362 -400 0
-362 -401 0
-362 -402 0
-362 -403 0
-362 -404 0
-362 -405 0
-362 -406 0
-362 -407 0
-362 -408 0
-362 -409 0
-362 -410 0
-362 -411 0
-362 -412 0
-362 -413 0
-362 -414 0
-362 -415 0
-362 -416 0
-363 -364 0
-363 -365 0
-363 -366 0
-363 -367 0
-363 -368 0
-363 -369 0
-363 -370 0
-363 -371 0
-363 -372 0
-363 -373 0
-363 -374 0
-363 -375 0
-363 -376 0
-363 -377 0
-363 -378 0
-363 -379 0
-363 -380 0
-363 -381 0
-363 -382 0
-363 -383 0
-363 -384 0
-363 -385 0
-363 -386 0
-363 -387 0
-363 -388 0
-363 -389 0
-363 -390 0
-363 -391 0
-363 -392 0
-363 -393 0
-363 -394 0
-363 -395 0
-363 -396 0
-363 -397 0
-363 -398 0
-363 -399 0
-363 -400 0
-363 -401 0
-363 -402 0
-363 -403 0
-363 -404 0
-363 -405 0
-363 -406 0
-363 -407 0
-363 -408 0
-363 -409 0
-363 -410 0
-363 -411 0
-363 -412 0
-363 -413 0
-363 -414 0
-363 -415 0
-363 -416 0
-364 -365 0
-364 -366 0
-364 -367 0
-364 -368 0
-364 -369 0
-364 -370 0
-364 -371 0
-364 -372 0
-364 -373 0
-364 -374 0
-364 -375 0
-364 -376 0
-364 -377 0
-364 -378 0
-364 -379 0
-364 -380 0
-364 -381 0
-364 -382 0
-364 -383 0
-364 -384 0
-364 -385 0
-364 -386 0
-364 -387 0
-364 -388 0
-364 -389 0
-364 -390 0
-364 -391 0
-364 -392 0
-364 -393 0
-364 -394 0
-364 -395 0
-364 -396 0
-364 -397 0
-364 -398 0
-364 -399 0
-364 -400 0
-364 -401 0
-364 -402 0
-364 -403 0
-364 -404 0
-364 -405 0
-364 -406 0
-364 -407 0
-364 -408 0
-364 -409 0
-364 -410 0
-364 -411 0
-364 -412 0
-364 -413 0
-364 -414 0
-364 -415 0
-364 -416 0
-365 -366 0
-365 -367 0
-365 -368 0
-365 -369 0
-365 -370 0
-365 -371 0
-365 -372 0
-365 -373 0
-365 -374 0
-365 -375 0
-365 -376 0
-365 -377 0
-365 -378 0
-365 -379 0
-365 -380 0
-365 -381 0
-365 -382 0
-365 -383 0
-365 -384 0
-365 -385 0
-365 -386 0
-365 -387 0
-365 -388 0
-365 -389 0
-365 -390 0
-365 -391 0
-365 -392 0
-365 -393 0
-365 -394 0
-365 -395 0
-365 -396 0
-365 -397 0
-365 -398 0
-365 -399 0
-365 -400 0
-365 -401 0
-365 -402 0
-365 -403 0
-365 -404 0
-365 -405 0
-365 -406 0
-365 -407 0
-365 -408 0
-365 -409 0
-365 -410 0
-365 -411 0
-365 -412 0
-365 -413 0
-365 -414 0
-365 -415 0
-365 -416 0
-366 -367 0
-366 -368 0
-366 -369 0
-366 -370 0
-366 -371 0
-366 -372 0
-366 -373 0
-366 -374 0
-366 -375 0
-366 -376 0
-366 -377 0
-366 -378 0
-366 -379 0
-366 -380 0
-366 -381 0
-366 -382 0
-366 -383 0
-366 -384 0
-366 -385 0
-366 -386 0
-366 -387 0
-366 -388 0
-366 -389 0
-366 -390 0
-366 -391 0
-366 -392 0
-366 -393 0
-366 -394 0
-366 -395 0
-366 -396 0
-366 -397 0
-366 -398 0
-366 -399 0
-366 -400 0
-366 -401 0
-366 -402 0
-366 -403 0
-366 -404 0
-366 -405 0
-366 -406 0
-366 -407 0
-366 -408 0
-366 -409 0
-366 -410 0
-366 -411 0
-366 -412 0
-366 -413 0
-366 -414 0
-366 -415 0
-366 -416 0
-367 -368 0
-367 -369 0
-367 -370 0
-367 -371 0
-367 -372 0
-367 -373 0
-367 -374 0
-367 -375 0
-367 -376 0
-367 -377 0
-367 -378 0
-367 -379 0
-367 -380 0
-367 -381 0
-367 -382 0
-367 -383 0
-367 -384 0
-367 -385 0
-367 -386 0
-367 -387 0
-367 -388 0
-367 -389 0
-367 -390 0
-367 -391 0
-367 -392 0
-367 -393 0
-367 -394 0
-367 -395 0
-367 -396 0
-367 -397 0
-367 -398 0
-367 -399 0
-367 -400 0
-367 -401 0
-367 -402 0
-367 -403 0
-367 -404 0
-367 -405 0
-367 -406 0
-367 -407 0
-367 -408 0
-367 -409 0
-367 -410 0
-367 -411 0
-367 -412 0
-367 -413 0
-367 -414 0
-367 -415 0
-367 -416 0
-368 -369 0
-368 -370 0
-368 -371 0
-368 -372 0
-368 -373 0
-368 -374 0
-368 -375 0
-368 -376 0
-368 -377 0
-368 -378 0
-368 -379 0
-368 -380 0
-368 -381 0
-368 -382 0
-368 -383 0
-368 -384 0
-368 -385 0
-368 -386 0
-368 -387 0
-368 -388 0
-368 -389 0
-368 -390 0
-368 -391 0
-368 -392 0
-368 -393 0
-368 -394 0
-368 -395 0
-368 -396 0
-368 -397 0
-368 -398 0
-368 -399 0
-368 -400 0
-368 -401 0
-368 -402 0
-368 -403 0
-368 -404 0
-368 -405 0
-368 -406 0
-368 -407 0
-368 -408 0
-368 -409 0
-368 -410 0
-368 -411 0
-368 -412 0
-368 -413 0
-368 -414 0
-368 -415 0
-368 -416 0
-369 -370 0
-369 -371 0
-369 -372 0
-369 -373 0
-369 -374 0
-369 -375 0
-369 -376 0
-369 -377 0
-369 -378 0
-369 -379 0
-369 -380 0
-369 -381 0
-369 -382 0
-369 -383 0
-369 -384 0
-369 -385 0
-369 -386 0
-369 -387 0
-369 -388 0
-369 -389 0
-369 -390 0
-369 -391 0
-369 -392 0
-369 -393 0
-369 -394 0
-369 -395 0
-369 -396 0
-369 -397 0
-369 -398 0
-369 -399 0
-369 -400 0
-369 -401 0
-369 -402 0
-369 -403 0
-369 -404 0
-369 -405 0
-369 -406 0
-369 -407 0
-369 -408 0
-369 -409 0
-369 -410 0
-369 -411 0
-369 -412 0
-369 -413 0
-369 -414 0
-369 -415 0
-369 -416 0
-370 -371 0
-370 -372 0
-370 -373 0
-370 -374 0
-370 -375 0
-370 -376 0
-370 -377 0
-370 -378 0
-370 -379 0
-370 -380 0
-370 -381 0
-370 -382 0
-370 -383 0
-370 -384 0
-370 -385 0
-370 -386 0
-370 -387 0
-370 -388 0
-370 -389 0
-370 -390 0
-370 -391 0
-370 -392 0
-370 -393 0
-370 -394 0
-370 -395 0
-370 -396 0
-370 -397 0
-370 -398 0
-370 -399 0
-370 -400 0
-370 -401 0
-370 -402 0
-370 -403 0
-370 -404 0
-370 -405 0
-370 -406 0
-370 -407 0
-370 -408 0
-370 -409 0
-370 -410 0
-370 -411 0
-370 -412 0
-370 -413 0
-370 -414 0
-370 -415 0
-370 -416 0
-371 -372 0
-371 -373 0
-371 -374 0
-371 -375 0
-371 -376 0
-371 -377 0
-371 -378 0
-371 -379 0
-371 -380 0
-371 -381 0
-371 -382 0
-371 -383 0
-371 -384 0
-371 -385 0
-371 -386 0
-371 -387 0
-371 -388 0
-371 -389 0
-371 -390 0
-371 -391 0
-371 -392 0
-371 -393 0
-371 -394 0
-371 -395 0
-371 -396 0
-371 -397 0
-371 -398 0
-371 -399 0
-371 -400 0
-371 -401 0
-371 -402 0
-371 -403 0
-371 -404 0
-371 -405 0
-371 -406 0
-371 -407 0
-371 -408 0
-371 -409 0
-371 -410 0
-371 -411 0
-371 -412 0
-371 -413 0
-371 -414 0
-371 -415 0
-371 -416 0
-372 -373 0
-372 -374 0
-372 -375 0
-372 -376 0
-372 -377 0
-372 -378 0
-372 -379 0
-372 -380 0
-372 -381 0
-372 -382 0
-372 -383 0
-372 -384 0
-372 -385 0
-372 -386 0
-372 -387 0
-372 -388 0
-372 -389 0
-372 -390 0
-372 -391 0
-372 -392 0
-372 -393 0
-372 -394 0
-372 -395 0
-372 -396 0
-372 -397 0
-372 -398 0
-372 -399 0
-372 -400 0
-372 -401 0
-372 -402 0
-372 -403 0
-372 -404 0
-372 -405 0
-372 -406 0
-372 -407 0
-372 -408 0
-372 -409 0
-372 -410 0
-372 -411 0
-372 -412 0
-372 -413 0
-372 -414 0
-372 -415 0
-372 -416 0
-373 -374 0
-373 -375 0
-373 -376 0
-373 -377 0
-373 -378 0
-373 -379 0
-373 -380 0
-373 -381 0
-373 -382 0
-373 -383 0
-373 -384 0
-373 -385 0
-373 -386 0
-373 -387 0
-373 -388 0
-373 -389 0
-373 -390 0
-373 -391 0
-373 -392 0
-373 -393 0
-373 -394 0
-373 -395 0
-373 -396 0
-373 -397 0
-373 -398 0
-373 -399 0
-373 -400 0
-373 -401 0
-373 -402 0
-373 -403 0
-373 -404 0
-373 -405 0
-373 -406 0
-373 -407 0
-373 -408 0
-373 -409 0
-373 -410 0
-373 -411 0
-373 -412 0
-373 -413 0
-373 -414 0
-373 -415 0
-373 -416 0
-374 -375 0
-374 -376 0
-374 -377 0
-374 -378 0
-374 -379 0
-374 -380 0
-374 -381 0
-374 -382 0
-374 -383 0
-374 -384 0
-374 -385 0
-374 -386 0
-374 -387 0
-374 -388 0
-374 -389 0
-374 -390 0
-374 -391 0
-374 -392 0
-374 -393 0
-374 -394 0
-374 -395 0
-374 -396 0
-374 -397 0
-374 -398 0
-374 -399 0
-374 -400 0
-374 -401 0
-374 -402 0
-374 -403 0
-374 -404 0
-374 -405 0
-374 -406 0
-374 -407 0
-374 -408 0
-374 -409 0
-374 -410 0
-374 -411 0
-374 -412 0
-374 -413 0
-374 -414 0
-374 -415 0
-374 -416 0
-375 -376 0
-375 -377 0
-375 -378 0
-375 -379 0
-375 -380 0
-375 -381 0
-375 -382 0
-375 -383 0
-375 -384 0
-375 -385 0
-375 -386 0
-375 -387 0
-375 -388 0
-375 -389 0
-375 -390 0
-375 -391 0
-375 -392 0
-375 -393 0
-375 -394 0
-375 -395 0
-375 -396 0
-375 -397 0
-375 -398 0
-375 -399 0
-375 -400 0
-375 -401 0
-375 -402 0
-375 -403 0
-375 -404 0
-375 -405 0
-375 -406 0
-375 -407 0
-375 -408 0
-375 -409 0
-375 -410 0
-375 -411 0
-375 -412 0
-375 -413 0
-375 -414 0
-375 -415 0
-375 -416 0
-376 -377 0
-376 -378 0
-376 -379 0
-376 -380 0
-376 -381 0
-376 -382 0
-376 -383 0
-376 -384 0
-376 -385 0
-376 -386 0
-376 -387 0
-376 -388 0
-376 -389 0
-376 -390 0
-376 -391 0
-376 -392 0
-376 -393 0
-376 -394 0
-376 -395 0
-376 -396 0
-376 -397 0
-376 -398 0
-376 -399 0
-376 -400 0
-376 -401 0
-376 -402 0
-376 -403 0
-376 -404 0
-376 -405 0
-376 -406 0
-376 -407 0
-376 -408 0
-376 -409 0
-376 -410 0
-376 -411 0
-376 -412 0
-376 -413 0
-376 -414 0
-376 -415 0
-376 -416 0
-377 -378 0
-377 -379 0
-377 -380 0
-377 -381 0
-377 -382 0
-377 -383 0
-377 -384 0
-377 -385 0
-377 -386 0
-377 -387 0
-377 -388 0
-377 -389 0
-377 -390 0
-377 -391 0
-377 -392 0
-377 -393 0
-377 -394 0
-377 -395 0
-377 -396 0
-377 -397 0
-377 -398 0
-377 -399 0
-377 -400 0
-377 -401 0
-377 -402 0
-377 -403 0
-377 -404 0
-377 -405 0
-377 -406 0
-377 -407 0
-377 -408 0
-377 -409 0
-377 -410 0
-377 -411 0
-377 -412 0
-377 -413 0
-377 -414 0
-377 -415 0
-377 -416 0
-378 -379 0
-378 -380 0
-378 -381 0
-378 -382 0
-378 -383 0
-378 -384 0
-378 -385 0
-378 -386 0
-378 -387 0
-378 -388 0
-378 -389 0
-378 -390 0
-378 -391 0
-378 -392 0
-378 -393 0
-378 -394 0
-378 -395 0
-378 -396 0
-378 -397 0
-378 -398 0
-378 -399 0
-378 -400 0
-378 -401 0
-378 -402 0
-378 -403 0
-378 -404 0
-378 -405 0
-378 -406 0
-378 -407 0
-378 -408 0
-378 -409 0
-378 -410 0
-378 -411 0
-378 -412 0
-378 -413 0
-378 -414 0
-378 -415 0
-378 -416 0
-379 -380 0
-379 -381 0
-379 -382 0
-379 -383 0
-379 -384 0
-379 -385 0
-379 -386 0
-379 -387 0
-379 -388 0
-379 -389 0
-379 -390 0
-379 -391 0
-379 -392 0
-379 -393 0
-379 -394 0
-379 -395 0
-379 -396 0
-379 -397 0
-379 -398 0
-379 -399 0
-379 -400 0
-379 -401 0
-379 -402 0
-379 -403 0
-379 -404 0
-379 -405 0
-379 -406 0
-379 -407 0
-379 -408 0
-379 -409 0
-379 -410 0
-379 -411 0
-379 -412 0
-379 -413 0
-379 -414 0
-379 -415 0
-379 -416 0
-380 -381 0
-380 -382 0
-380 -383 0
-380 -384 0
-380 -385 0
-380 -386 0
-380 -387 0
-380 -388 0
-380 -389 0
-380 -390 0
-380 -391 0
-380 -392 0
-380 -393 0
-380 -394 0
-380 -395 0
-380 -396 0
-380 -397 0
-380 -398 0
-380 -399 0
-380 -400 0
-380 -401 0
-380 -402 0
-380 -403 0
-380 -404 0
-380 -405 0
-380 -406 0
-380 -407 0
-380 -408 0
-380 -409 0
-380 -410 0
-380 -411 0
-380 -412 0
-380 -413 0
-380 -414 0
-380 -415 0
-380 -416 0
-381 -382 0
-381 -383 0
-381 -384 0
-381 -385 0
-381 -386 0
-381 -387 0
-381 -388 0
-381 -389 0
-381 -390 0
-381 -391 0
-381 -392 0
-381 -393 0
-381 -394 0
-381 -395 0
-381 -396 0
-381 -397 0
-381 -398 0
-381 -399 0
-381 -400 0
-381 -401 0
-381 -402 0
-381 -403 0
-381 -404 0
-381 -405 0
-381 -406 0
-381 -407 0
-381 -408 0
-381 -409 0
-381 -410 0
-381 -411 0
-381 -412 0
-381 -413 0
-381 -414 0
-381 -415 0
-381 -416 0
-382 -383 0
-382 -384 0
-382 -385 0
-382 -386 0
-382 -387 0
-382 -388 0
-382 -389 0
-382 -390 0
-382 -391 0
-382 -392 0
-382 -393 0
-382 -394 0
-382 -395 0
-382 -396 0
-382 -397 0
-382 -398 0
-382 -399 0
-382 -400 0
-382 -401 0
-382 -402 0
-382 -403 0
-382 -404 0
-382 -405 0
-382 -406 0
-382 -407 0
-382 -408 0
-382 -409 0
-382 -410 0
-382 -411 0
-382 -412 0
-382 -413 0
-382 -414 0
-382 -415 0
-382 -416 0
-383 -384 0
-383 -385 0
-383 -386 0
-383 -387 0
-383 -388 0
-383 -389 0
-383 -390 0
-383 -391 0
-383 -392 0
-383 -393 0
-383 -394 0
-383 -395 0
-383 -396 0
-383 -397 0
-383 -398 0
-383 -399 0
-383 -400 0
-383 -401 0
-383 -402 0
-383 -403 0
-383 -404 0
-383 -405 0
-383 -406 0
-383 -407 0
-383 -408 0
-383 -409 0
-383 -410 0
-383 -411 0
-383 -412 0
-383 -413 0
-383 -414 0
-383 -415 0
-383 -416 0
-384 -385 0
-384 -386 0
-384 -387 0
-384 -388 0
-384 -389 0
-384 -390 0
-384 -391 0
-384 -392 0
-384 -393 0
-384 -394 0
-384 -395 0
-384 -396 0
-384 -397 0
-384 -398 0
-384 -399 0
-384 -400 0
-384 -401 0
-384 -402 0
-384 -403 0
-384 -404 0
-384 -405 0
-384 -406 0
-384 -407 0
-384 -408 0
-384 -409 0
-384 -410 0
-384 -411 0
-384 -412 0
-384 -413 0
-384 -414 0
-384 -415 0
-384 -416 0
-385 -386 0
-385 -387 0
-385 -388 0
-385 -389 0
-385 -390 0
-385 -391 0
-385 -392 0
-385 -393 0
-385 -394 0
-385 -395 0
-385 -396 0
-385 -397 0
-385 -398 0
-385 -399 0
-385 -400 0
-385 -401 0
-385 -402 0
-385 -403 0
-385 -404 0
-385 -405 0
-385 -406 0
-385 -407 0
-385 -408 0
-385 -409 0
-385 -410 0
-385 -411 0
-385 -412 0
-385 -413 0
-385 -414 0
-385 -415 0
-385 -416 0
-386 -387 0
-386 -388 0
-386 -389 0
-386 -390 0
-386 -391 0
-386 -392 0
-386 -393 0
-386 -394 0
-386 -395 0
-386 -396 0
-386 -397 0
-386 -398 0
-386 -399 0
-386 -400 0
-386 -401 0
-386 -402 0
-386 -403 0
-386 -404 0
-386 -405 0
-386 -406 0
-386 -407 0
-386 -408 0
-386 -409 0
-386 -410 0
-386 -411 0
-386 -412 0
-386 -413 0
-386 -414 0
-386 -415 0
-386 -416 0
-387 -388 0
-387 -389 0
-387 -390 0
-387 -391 0
-387 -392 0
-387 -393 0
-387 -394 0
-387 -395 0
-387 -396 0
-387 -397 0
-387 -398 0
-387 -399 0
-387 -400 0
-387 -401 0
-387 -402 0
-387 -403 0
-387 -404 0
-387 -405 0
-387 -406 0
-387 -407 0
-387 -408 0
-387 -409 0
-387 -410 0
-387 -411 0
-387 -412 0
-387 -413 0
-387 -414 0
-387 -415 0
-387 -416 0
-388 -389 0
-388 -390 0
-388 -391 0
-388 -392 0
-388 -393 0
-388 -394 0
-388 -395 0
-388 -396 0
-388 -397 0
-388 -398 0
-388 -399 0
-388 -400 0
-388 -401 0
-388 -402 0
-388 -403 0
-388 -404 0
-388 -405 0
-388 -406 0
-388 -407 0
-388 -408 0
-388 -409 0
-388 -410 0
-388 -411 0
-388 -412 0
-388 -413 0
-388 -414 0
-388 -415 0
-388 -416 0
-389 -390 0
-389 -391 0
-389 -392 0
-389 -393 0
-389 -394 0
-389 -395 0
-389 -396 0
-389 -397 0
-389 -398 0
-389 -399 0
-389 -400 0
-389 -401 0
-389 -402 0
-389 -403 0
-389 -404 0
-389 -405 0
-389 -406 0
-389 -407 0
-389 -408 0
-389 -409 0
-389 -410 0
-389 -411 0
-389 -412 0
-389 -413 0
-389 -414 0
-389 -415 0
-389 -416 0
-390 -391 0
-390 -392 0
-390 -393 0
-390 -394 0
-390 -395 0
-390 -396 0
-390 -397 0
-390 -398 0
-390 -399 0
-390 -400 0
-390 -401 0
-390 -402 0
-390 -403 0
-390 -404 0
-390 -405 0
-390 -406 0
-390 -407 0
-390 -408 0
-390 -409 0
-390 -410 0
-390 -411 0
-390 -412 0
-390 -413 0
-390 -414 0
-390 -415 0
-390 -416 0
-391 -392 0
-391 -393 0
-391 -394 0
-391 -395 0
-391 -396 0
-391 -397 0
-391 -398 0
-391 -399 0
-391 -400 0
-391 -401 0
-391 -402 0
-391 -403 0
-391 -404 0
-391 -405 0
-391 -406 0
-391 -407 0
-391 -408 0
-391 -409 0
-391 -410 0
-391 -411 0
-391 -412 0
-391 -413 0
-391 -414 0
-391 -415 0
-391 -416 0
-392 -393 0
-392 -394 0
-392 -395 0
-392 -396 0
-392 -397 0
-392 -398 0
-392 -399 0
-392 -400 0
-392 -401 0
-392 -402 0
-392 -403 0
-392 -404 0
-392 -405 0
-392 -406 0
-392 -407 0
-392 -408 0
-392 -409 0
-392 -410 0
-392 -411 0
-392 -412 0
-392 -413 0
-392 -414 0
-392 -415 0
-392 -416 0
-393 -394 0
-393 -395 0
-393 -396 0
-393 -397 0
-393 -398 0
-393 -399 0
-393 -400 0
-393 -401 0
-393 -402 0
-393 -403 0
-393 -404 0
-393 -405 0
-393 -406 0
-393 -407 0
-393 -408 0
-393 -409 0
-393 -410 0
-393 -411 0
-393 -412 0
-393 -413 0
-393 -414 0
-393 -415 0
-393 -416 0
-394 -395 0
-394 -396 0
-394 -397 0
-394 -398 0
-394 -399 0
-394 -400 0
-394 -401 0
-394 -402 0
-394 -403 0
-394 -404 0
-394 -405 0
-394 -406 0
-394 -407 0
-394 -408 0
-394 -409 0
-394 -410 0
-394 -411 0
-394 -412 0
-394 -413 0
-394 -414 0
-394 -415 0
-394 -416 0
-395 -396 0
-395 -397 0
-395 -398 0
-395 -399 0
-395 -400 0
-395 -401 0
-395 -402 0
-395 -403 0
-395 -404 0
-395 -405 0
-395 -406 0
-395 -407 0
-395 -408 0
-395 -409 0
-395 -410 0
-395 -411 0
-395 -412 0
-395 -413 0
-395 -414 0
-395 -415 0
-395 -416 0
-396 -397 0
-396 -398 0
-396 -399 0
-396 -400 0
-396 -401 0
-396 -402 0
-396 -403 0
-396 -404 0
-396 -405 0
-396 -406 0
-396 -407 0
-396 -408 0
-396 -409 0
-396 -410 0
-396 -411 0
-396 -412 0
-396 -413 0
-396 -414 0
-396 -415 0
-396 -416 0
-397 -398 0
-397 -399 0
-397 -400 0
-397 -401 0
-397 -402 0
-397 -403 0
-397 -404 0
-397 -405 0
-397 -406 0
-397 -407 0
-397 -408 0
-397 -409 0
-397 -410 0
-397 -411 0
-397 -412 0
-397 -413 0
-397 -414 0
-397 -415 0
-397 -416 0
-398 -399 0
-398 -400 0
-398 -401 0
-398 -402 0
-398 -403 0
-398 -404 0
-398 -405 0
-398 -406 0
-398 -407 0
-398 -408 0
-398 -409 0
-398 -410 0
-398 -411 0
-398 -412 0
-398 -413 0
-398 -414 0
-398 -415 0
-398 -416 0
-399 -400 0
-399 -401 0
-399 -402 0
-399 -403 0
-399 -404 0
-399 -405 0
-399 -406 0
-399 -407 0
-399 -408 0
-399 -409 0
-399 -410 0
-399 -411 0
-399 -412 0
-399 -413 0
-399 -414 0
-399 -415 0
-399 -416 0
-400 -401 0
-400 -402 0
-400 -403 0
-400 -404 0
-400 -405 0
-400 -406 0
-400 -407 0
-400 -408 0
-400 -409 0
-400 -410 0
-400 -411 0
-400 -412 0
-400 -413 0
-400 -414 0
-400 -415 0
-400 -416 0
-401 -402 0
-401 -403 0
-401 -404 0
-401 -405 0
-401 -406 0
-401 -407 0
-401 -408 0
-401 -409 0
-401 -410 0
-401 -411 0
-401 -412 0
-401 -413 0
-401 -414 0
-401 -415 0
-401 -416 0
-402 -403 0
-402 -404 0
-402 -405 0
-402 -406 0
-402 -407 0
-402 -408 0
-402 -409 0
-402 -410 0
-402 -411 0
-402 -412 0
-402 -413 0
-402 -414 0
-402 -415 0
-402 -416 0
-403 -404 0
-403 -405 0
-403 -406 0
-403 -407 0
-403 -408 0
-403 -409 0
-403 -410 0
-403 -411 0
-403 -412 0
-403 -413 0
-403 -414 0
-403 -415 0
-403 -416 0
-404 -405 0
-404 -406 0
-404 -407 0
-404 -408 0
-404 -409 0
-404 -410 0
-404 -411 0
-404 -412 0
-404 -413 0
-404 -414 0
-404 -415 0
-404 -416 0
-405 -406 0
-405 -407 0
-405 -408 0
-405 -409 0
-405 -410 0
-405 -411 0
-405 -412 0
-405 -413 0
-405 -414 0
-405 -415 0
-405 -416 0
-406 -407 0
-406 -408 0
-406 -409 0
-406 -410 0
-406 -411 0
-406 -412 0
-406 -413 0
-406 -414 0
-406 -415 0
-406 -416 0
-407 -408 0
-407 -409 0
-407 -410 0
-407 -411 0
-407 -412 0
-407 -413 0
-407 -414 0
-407 -415 0
-407 -416 0
-408 -409 0
-408 -410 0
-408 -411 0
-408 -412 0
-408 -413 0
-408 -414 0
-408 -415 0
-408 -416 0
-409 -410 0
-409 -411 0
-409 -412 0
-409 -413 0
-409 -414 0
-409 -415 0
-409 -416 0
-410 -411 0
-410 -412 0
-410 -413 0
-410 -414 0
-410 -415 0
-410 -416 0
-411 -412 0
-411 -413 0
-411 -414 0
-411 -415 0
-411 -416 0
-412 -413 0
-412 -414 0
-412 -415 0
-412 -416 0
-413 -414 0
-413 -415 0
-413 -416 0
-414 -415 0
-414 -416 0
-415 -416 0
-83 333 334 335 336 337 338 339 340 341 342 343 344 345 346 347 348 349 350 351 352 353 354 355 356 124 0
-84 333 334 335 336 337 338 339 340 341 342 343 344 345 346 347 348 349 350 351 352 353 354 355 356 125 0
-85 333 334 335 336 337 338 339 340 341 342 343 344 345 346 347 348 349 350 351 352 353 354 355 356 126 0
-86 333 334 335 336 337 338 339 340 341 342 343 344 345 346 347 348 349 350 351 352 353 354 355 356 127 0
-87 333 334 335 336 337 338 339 340 341 342 343 344 345 346 347 348 349 350 351 352 353 354 355 356 128 0
-88 333 334 335 336 337 338 339 340 341 342 343 344 345 346 347 348 349 350 351 352 353 354 355 356 129 0
-89 333 334 335 336 337 338 339 340 341 342 343 344 345 346 347 348 349 350 351 352 353 354 355 356 130 0
-90 333 334 335 336 337 338 339 340 341 342 343 344 345 346 347 348 349 350 351 352 353 354 355 356 131 0
-91 333 334 335 336 337 338 339 340 341 342 343 344 345 346 347 348 349 350 351 352 353 354 355 356 132 0
-92 333 334 335 336 337 338 339 340 341 342 343 344 345 346 347 348 349 350 351 352 353 354 355 356 133 0
-94 357 358 359 360 361 362 363 364 365 366 367 368 369 370 371 372 373 374 375 376 377 378 379 380 135 0
-95 357 358 359 360 361 362 363 364 365 366 367 368 369 370 371 372 373 374 375 376 377 378 379 380 136 0
-96 357 358 359 360 361 362 363 364 365 366 367 368 369 370 371 372 373 374 375 376 377 378 379 380 137 0
-97 357 358 359 360 361 362 363 364 365 366 367 368 369 370 371 372 373 374 375 376 377 378 379 380 138 0
-98 357 358 359 360 361 362 363 364 365 366 367 368 369 370 371 372 373 374 375 376 377 378 379 380 139 0
-99 357 358 359 360 361 362 363 364 365 366 367 368 369 370 371 372 373 374 375 376 377 378 379 380 140 0
-100 357 358 359 360 361 362 363 364 365 366 367 368 369 370 371 372 373 374 375 376 377 378 379 380 141 0
-101 357 358 359 360 361 362 363 364 365 366 367 368 369 370 371 372 373 374 375 376 377 378 379 380 142 0
-102 357 358 359 360 361 362 363 364 365 366 367 368 369 370 371 372 373 374 375 376 377 378 379 380 143 0
-103 357 358 359 360 361 362 363 364 365 366 367 368 369 370 371 372 373 374 375 376 377 378 379 380 144 0
-105 381 382 383 384 385 386 387 388 389 390 391 392 393 394 395 396 397 398 399 400 146 0
-106 381 382 383 384 385 386 387 388 389 390 391 392 393 394 395 396 397 398 399 400 147 0
-107 381 382 383 384 385 386 387 388 389 390 391 392 393 394 395 396 397 398 399 400 148 0
-108 381 382 383 384 385 386 387 388 389 390 391 392 393 394 395 396 397 398 399 400 149 0
-109 381 382 383 384 385 386 387 388 389 390 391 392 393 394 395 396 397 398 399 400 150 0
-110 381 382 383 384 385 386 387 388 389 390 391 392 393 394 395 396 397 398 399 400 151 0
-111 381 382 383 384 385 386 387 388 389 390 391 392 393 394 395 396 397 398 399 400 152 0
-112 381 382 383 384 385 386 387 388 389 390 391 392 393 394 395 396 397 398 399 400 153 0
-113 381 382 383 384 385 386 387 388 389 390 391 392 393 394 395 396 397 398 399 400 154 0
-115 401 402 403 404 405 406 407 408 409 410 411 412 413 414 415 416 156 0
-116 401 402 403 404 405 406 407 408 409 410 411 412 413 414 415 416 157 0
-117 401 402 403 404 405 406 407 408 409 410 411 412 413 414 415 416 158 0
-118 401 402 403 404 405 406 407 408 409 410 411 412 413 414 415 416 159 0
-119 401 402 403 404 405 406 407 408 409 410 411 412 413 414 415 416 160 0
-120 401 402 403 404 405 406 407 408 409 410 411 412 413 414 415 416 161 0
-121 401 402 403 404 405 406 407 408 409 410 411 412 413 414 415 416 162 0
-122 401 402 403 404 405 406 407 408 409 410 411 412 413 414 415 416 163 0
